74
Lattice="12.176378772032349 0.0 0.0 6.088189386016174 10.545053342681582 0.0 0.0 0.0 20.0" Properties=species:S:1:pos:R:3:move_mask:L:1:tags:I:1:momenta:R:3 pbc="T T F"
Fe      12.17637877       2.34334519       0.00000000  F        8       0.00000000       0.00000000       0.00000000
Fe       4.05879292       2.34334519       0.00000000  F        8       0.00000000       0.00000000       0.00000000
Fe       8.11758585       2.34334519       0.00000000  F        8       0.00000000       0.00000000       0.00000000
Fe      14.20577523       5.85836297       0.00000000  F        8       0.00000000       0.00000000       0.00000000
Fe       6.08818939       5.85836297       0.00000000  F        8       0.00000000       0.00000000       0.00000000
Fe      10.14698231       5.85836297       0.00000000  F        8       0.00000000       0.00000000       0.00000000
Fe      16.23517169       9.37338075       0.00000000  F        8       0.00000000       0.00000000       0.00000000
Fe       8.11758585       9.37338075       0.00000000  F        8       0.00000000       0.00000000       0.00000000
Fe      12.17637877       9.37338075       0.00000000  F        8       0.00000000       0.00000000       0.00000000
Fe       0.00000000       0.00000000       0.82849764  F        7       0.00000000       0.00000000       0.00000000
Fe       4.05879292       0.00000000       0.82849764  F        7       0.00000000       0.00000000       0.00000000
Fe       8.11758585       0.00000000       0.82849764  F        7       0.00000000       0.00000000       0.00000000
Fe       2.02939646       3.51501778       0.82849764  F        7       0.00000000       0.00000000       0.00000000
Fe       6.08818939       3.51501778       0.82849764  F        7       0.00000000       0.00000000       0.00000000
Fe      10.14698231       3.51501778       0.82849764  F        7       0.00000000       0.00000000       0.00000000
Fe       4.05879292       7.03003556       0.82849764  F        7       0.00000000       0.00000000       0.00000000
Fe       8.11758585       7.03003556       0.82849764  F        7       0.00000000       0.00000000       0.00000000
Fe      12.17637877       7.03003556       0.82849764  F        7       0.00000000       0.00000000       0.00000000
Fe       2.02939646       1.17167259       1.65699527  F        6       0.00000000       0.00000000       0.00000000
Fe       6.08818939       1.17167259       1.65699527  F        6       0.00000000       0.00000000       0.00000000
Fe      10.14698231       1.17167259       1.65699527  F        6       0.00000000       0.00000000       0.00000000
Fe       4.05879292       4.68669037       1.65699527  F        6       0.00000000       0.00000000       0.00000000
Fe       8.11758585       4.68669037       1.65699527  F        6       0.00000000       0.00000000       0.00000000
Fe      12.17637877       4.68669037       1.65699527  F        6       0.00000000       0.00000000       0.00000000
Fe       6.08818939       8.20170816       1.65699527  F        6       0.00000000       0.00000000       0.00000000
Fe      10.14698231       8.20170816       1.65699527  F        6       0.00000000       0.00000000       0.00000000
Fe      14.20577523       8.20170816       1.65699527  F        6       0.00000000       0.00000000       0.00000000
Fe      12.32217317       2.48782447       2.20627542  T        5       1.14253700       0.23430604      -0.60782253
Fe       3.91299852       2.48782447       2.20627542  T        5       0.27866642       0.88900337       1.25766943
Fe       8.11758585       2.37971769       2.11915938  T        5       0.69786686      -0.21014271       1.43208409
Fe      14.20577523       6.01345990       2.21262973  T        5       2.67861803      -1.41125569      -2.04921341
Fe       6.09303941       5.60691759       2.23493051  T        5      -0.98406618      -1.79657912       0.86230871
Fe      10.14213229       5.60691759       2.23493051  T        5       0.73751306      -5.19034042      -1.32178413
Fe      16.27934791       9.42772509       2.30967636  T        5       1.82401494      -0.12686836       1.17897868
Fe       8.11758585       9.28473391       2.22612378  T        5      -3.30698216       0.99662812       1.89212407
Fe      12.13220256       9.42772509       2.30967636  T        5      -2.85524567      -3.06207881      -1.61445761
Fe       0.15784504       0.23465643       3.07122752  T        4       0.72837510       0.38163816      -0.99763436
Fe       3.90094789       0.23465643       3.07122752  T        4       1.79287722       1.03312224      -2.11027575
Fe       8.11758585       0.16802837       2.99454389  T        4       0.07398046       0.24057896      -0.31018928
Fe      14.20577523       3.85337572       3.03903862  T        4      -0.64677720       2.51893904       3.56849077
Fe       6.10909518       3.15356579       3.13369673  T        4      -0.36462963      -1.95065854       1.02204083
Fe      10.12607652       3.15356579       3.13369673  T        4      -2.10819367       5.41527839       1.44053874
Fe       4.34328422       7.05188252       3.07155473  T        4      -1.88314952      -0.71809638      -0.53338415
Fe       8.11758585       6.89052654       3.06223066  T        4      -2.38618021      -2.39909665      -2.32481659
Fe      11.89188748       7.05188252       3.07155473  T        4       1.55680892      -3.61849981      -1.26324815
Fe       2.02939646       1.51149719       3.92988254  T        3      -0.41439745       2.16387279       0.63125821
Fe       6.06709258       0.83404343       3.99707520  T        3      -1.22593944      -0.21157269      -1.07976387
Fe      10.16807912       0.83404343       3.99707520  T        3       2.01242574      -1.83093605       0.93745132
Fe       4.28274181       4.69107001       3.94709121  T        3      -2.25104744       0.47716077      -0.08460562
Fe       8.11758585       4.67982824       3.89502634  T        3       4.30422748       1.91739035      -0.48772671
Fe      11.95242989       4.69107001       3.94709121  T        3       0.23208542       1.24397826       1.19449318
Fe       6.29819679       8.41945786       3.92492817  T        3       1.13315280       1.26828916       2.83206017
Fe       9.93697491       8.41945786       3.92492817  T        3       1.16293900       0.79178914       0.42483729
Fe      14.20577523       7.88194865       3.91936309  T        3       1.60059900       0.06167853       1.84312143
Fe      11.97709626       2.26961858       4.47298060  T        2       0.95419546      -3.54757663      -0.84872047
Fe       4.25807543       2.26961858       4.47298060  T        2      -1.41327711      -2.43211538       1.37730819
Fe       8.11758585       2.21811541       4.52679199  T        2       1.93866565       1.45918666       0.73666412
Fe      14.20577523       5.55863507       4.63516398  T        2       1.71974687      -2.51804797      -0.32269237
Fe       6.20797503       6.11433863       4.46381470  T        2      -1.37880026      -2.43811834       1.51781672
Fe      10.02719667       6.11433863       4.46381470  T        2      -0.67591613      -1.15911186       1.60904162
Fe      16.20596459       8.96939591       4.59958296  T        2       1.15738302       0.29453990       0.81865632
Fe       8.11758585       9.87074069       4.47613870  T        2       2.67633646       2.40526144       0.27786811
Fe      12.20558587       8.96939591       4.59958296  T        2       1.02890101       0.92443451      -2.47510725
Fe      17.92260955      10.29321335       5.20819659  T        1      -0.49686778      -1.31595198      -2.18673613
Fe      10.48894092      10.29321335       5.20819659  T        1       1.45397542       1.86998589      -0.72979448
Fe      14.20577524       9.96452164       5.03170640  T        1       1.25365879      -0.20020754       4.01116448
Fe       2.02939646       3.37079402       5.20868544  T        1       0.68588594      -0.19709989       2.77672170
Fe       6.22870316       3.95932018       5.24568435  T        1       0.15490297       3.21627202       3.15453239
Fe      10.00646854       3.95932018       5.24568435  T        1      -0.54049784      -2.03646339      -2.95424029
Fe      15.97022956       6.70236388       5.20649188  T        1       4.98962931       1.85384506       2.36744557
Fe       8.11758585       7.64841502       5.17819080  T        1       1.57405477      -1.12123672       0.31605073
Fe      12.44132091       6.70236388       5.20649188  T        1       0.20515621       2.05360979       1.80861387
N        7.49642865       3.21327443       6.30896701  T        0      -0.07139963       0.07290767       0.28597828
N        8.73874302       3.21327443       6.30896701  T        0       1.67143693       0.88695389      -0.15479037
74
Lattice="12.176378772032349 0.0 0.0 6.088189386016174 10.545053342681582 0.0 0.0 0.0 20.0" Properties=species:S:1:pos:R:3:move_mask:L:1:tags:I:1:momenta:R:3 pbc="T T F"
Fe      12.17637877       2.34334519       0.00000000  F        8       0.00000000       0.00000000       0.00000000
Fe       4.05879292       2.34334519       0.00000000  F        8       0.00000000       0.00000000       0.00000000
Fe       8.11758585       2.34334519       0.00000000  F        8       0.00000000       0.00000000       0.00000000
Fe      14.20577523       5.85836297       0.00000000  F        8       0.00000000       0.00000000       0.00000000
Fe       6.08818939       5.85836297       0.00000000  F        8       0.00000000       0.00000000       0.00000000
Fe      10.14698231       5.85836297       0.00000000  F        8       0.00000000       0.00000000       0.00000000
Fe      16.23517169       9.37338075       0.00000000  F        8       0.00000000       0.00000000       0.00000000
Fe       8.11758585       9.37338075       0.00000000  F        8       0.00000000       0.00000000       0.00000000
Fe      12.17637877       9.37338075       0.00000000  F        8       0.00000000       0.00000000       0.00000000
Fe       0.00000000       0.00000000       0.82849764  F        7       0.00000000       0.00000000       0.00000000
Fe       4.05879292       0.00000000       0.82849764  F        7       0.00000000       0.00000000       0.00000000
Fe       8.11758585       0.00000000       0.82849764  F        7       0.00000000       0.00000000       0.00000000
Fe       2.02939646       3.51501778       0.82849764  F        7       0.00000000       0.00000000       0.00000000
Fe       6.08818939       3.51501778       0.82849764  F        7       0.00000000       0.00000000       0.00000000
Fe      10.14698231       3.51501778       0.82849764  F        7       0.00000000       0.00000000       0.00000000
Fe       4.05879292       7.03003556       0.82849764  F        7       0.00000000       0.00000000       0.00000000
Fe       8.11758585       7.03003556       0.82849764  F        7       0.00000000       0.00000000       0.00000000
Fe      12.17637877       7.03003556       0.82849764  F        7       0.00000000       0.00000000       0.00000000
Fe       2.02939646       1.17167259       1.65699527  F        6       0.00000000       0.00000000       0.00000000
Fe       6.08818939       1.17167259       1.65699527  F        6       0.00000000       0.00000000       0.00000000
Fe      10.14698231       1.17167259       1.65699527  F        6       0.00000000       0.00000000       0.00000000
Fe       4.05879292       4.68669037       1.65699527  F        6       0.00000000       0.00000000       0.00000000
Fe       8.11758585       4.68669037       1.65699527  F        6       0.00000000       0.00000000       0.00000000
Fe      12.17637877       4.68669037       1.65699527  F        6       0.00000000       0.00000000       0.00000000
Fe       6.08818939       8.20170816       1.65699527  F        6       0.00000000       0.00000000       0.00000000
Fe      10.14698231       8.20170816       1.65699527  F        6       0.00000000       0.00000000       0.00000000
Fe      14.20577523       8.20170816       1.65699527  F        6       0.00000000       0.00000000       0.00000000
Fe      12.32316531       2.48802808       2.20574762  T        5       1.12772686       0.23177117      -0.59985110
Fe       3.91324076       2.48859671       2.20736788  T        5       0.27554995       0.87832630       1.24225609
Fe       8.11819198       2.37953527       2.12040347  T        5       0.68909157      -0.20736006       1.41478604
Fe      14.20810173       6.01223421       2.21084976  T        5       2.64524794      -1.39329496      -2.02393306
Fe       6.09218467       5.60535730       2.23567937  T        5      -0.97186512      -1.77391952       0.85137826
Fe      10.14277289       5.60240966       2.23378239  T        5       0.72842969      -5.12494008      -1.30511738
Fe      16.28093226       9.42761475       2.31070046  T        5       1.80149861      -0.12563686       1.16447005
Fe       8.11471359       9.28559936       2.22776732  T        5      -3.26557538       0.98371089       1.86879159
Fe      12.12972254       9.42506539       2.30827424  T        5      -2.81979035      -3.02412244      -1.59402705
Fe       0.15847769       0.23498791       3.07036092  T        4       0.71937528       0.37684066      -0.98553386
Fe       3.90250506       0.23555375       3.06939454  T        4       1.77032979       1.02014883      -2.08410238
Fe       8.11765011       0.16823755       2.99427445  T        4       0.07297227       0.23782126      -0.30595338
Fe      14.20521348       3.85556326       3.04213832  T        4      -0.63884680       2.48657443       3.52418395
Fe       6.10877832       3.15187158       3.13458447  T        4      -0.36039602      -1.92600727       1.00986286
Fe      10.12424562       3.15826923       3.13494796  T        4      -2.08117125       5.34705188       1.42210165
Fe       4.34164868       7.05125873       3.07109146  T        4      -1.85936987      -0.70930854      -0.52660170
Fe       8.11551334       6.88844300       3.06021146  T        4      -2.35629336      -2.36838802      -2.29551048
Fe      11.89323958       7.04873960       3.07045754  T        4       1.53722934      -3.57368210      -1.24724146
Fe       2.02903654       1.51337684       3.93043124  T        3      -0.40911737       2.13732390       0.62422829
Fe       6.06602788       0.83385960       3.99613736  T        3      -1.21012212      -0.20912670      -1.06639881
Fe      10.16982691       0.83245311       3.99788940  T        3       1.98676189      -1.80815055       0.92554649
Fe       4.28078665       4.69148439       3.94701771  T        3      -2.22293398       0.47095970      -0.08349797
Fe       8.12132427       4.68149370       3.89460261  T        3       4.25027273       1.89362261      -0.48170901
Fe      11.95263149       4.69215040       3.94812866  T        3       0.22945591       1.22840382       1.17964229
Fe       6.29918104       8.42055949       3.92738767  T        3       1.11937568       1.25227854       2.79596117
Fe       9.93798492       8.42014563       3.92529688  T        3       1.14819497       0.78185563       0.41879980
Fe      14.20716542       7.88200271       3.92096389  T        3       1.58060168       0.06189904       1.82000203
Fe      11.97792508       2.26653704       4.47224366  T        2       0.94234502      -3.50387806      -0.83773149
Fe       4.25684788       2.26750587       4.47417707  T        2      -1.39577589      -2.40244114       1.36067766
Fe       8.11926967       2.21938273       4.52743165  T        2       1.91444416       1.44104393       0.72758490
Fe      14.20726891       5.55644804       4.63488361  T        2       1.69836456      -2.48600545      -0.31849356
Fe       6.20677758       6.11222109       4.46513301  T        2      -1.36142679      -2.40739168       1.49885578
Fe      10.02660950       6.11333196       4.46521224  T        2      -0.66768375      -1.14414243       1.58867546
Fe      16.20697003       8.96965153       4.60029436  T        2       1.14318716       0.29030953       0.80928767
Fe       8.11991037       9.87282984       4.47638002  T        2       2.64312698       2.37535282       0.27438918
Fe      12.20647932       8.97019863       4.59743358  T        2       1.01578970       0.91238236      -2.44353719
Fe      17.92217812      10.29207054       5.20629726  T        1      -0.49021537      -1.29907342      -2.15911551
Fe      10.49020364      10.29483767       5.20756268  T        1       1.43555165       1.84702173      -0.72079469
Fe      14.20686410       9.96434758       5.03519018  T        1       1.23807524      -0.19802662       3.96060237
Fe       2.02999218       3.37062319       5.21109659  T        1       0.67738875      -0.19386368       2.74107280
Fe       6.22883766       3.96211339       5.24842415  T        1       0.15336059       3.17538930       3.11497706
Fe      10.00599913       3.95755116       5.24311841  T        1      -0.53336804      -2.01142040      -2.91704832
Fe      15.97456337       6.70397377       5.20854809  T        1       4.92759828       1.83008640       2.33775061
Fe       8.11895299       7.64744095       5.17846508  T        1       1.55453960      -1.10779718       0.31119078
Fe      12.44149900       6.70414728       5.20806272  T        1       0.20261393       2.02745149       1.78569295
N        7.49617770       3.21352560       6.30995745  T        0      -0.06676637       0.07127262       0.28205425
N        8.74453464       3.21634451       6.30843114  T        0       1.64619099       0.87485760      -0.15281666
74
Lattice="12.176378772032349 0.0 0.0 6.088189386016174 10.545053342681582 0.0 0.0 0.0 20.0" Properties=species:S:1:pos:R:3:move_mask:L:1:tags:I:1:momenta:R:3 pbc="T T F"
Fe      12.17637877       2.34334519       0.00000000  F        8       0.00000000       0.00000000       0.00000000
Fe       4.05879292       2.34334519       0.00000000  F        8       0.00000000       0.00000000       0.00000000
Fe       8.11758585       2.34334519       0.00000000  F        8       0.00000000       0.00000000       0.00000000
Fe      14.20577523       5.85836297       0.00000000  F        8       0.00000000       0.00000000       0.00000000
Fe       6.08818939       5.85836297       0.00000000  F        8       0.00000000       0.00000000       0.00000000
Fe      10.14698231       5.85836297       0.00000000  F        8       0.00000000       0.00000000       0.00000000
Fe      16.23517169       9.37338075       0.00000000  F        8       0.00000000       0.00000000       0.00000000
Fe       8.11758585       9.37338075       0.00000000  F        8       0.00000000       0.00000000       0.00000000
Fe      12.17637877       9.37338075       0.00000000  F        8       0.00000000       0.00000000       0.00000000
Fe       0.00000000       0.00000000       0.82849764  F        7       0.00000000       0.00000000       0.00000000
Fe       4.05879292       0.00000000       0.82849764  F        7       0.00000000       0.00000000       0.00000000
Fe       8.11758585       0.00000000       0.82849764  F        7       0.00000000       0.00000000       0.00000000
Fe       2.02939646       3.51501778       0.82849764  F        7       0.00000000       0.00000000       0.00000000
Fe       6.08818939       3.51501778       0.82849764  F        7       0.00000000       0.00000000       0.00000000
Fe      10.14698231       3.51501778       0.82849764  F        7       0.00000000       0.00000000       0.00000000
Fe       4.05879292       7.03003556       0.82849764  F        7       0.00000000       0.00000000       0.00000000
Fe       8.11758585       7.03003556       0.82849764  F        7       0.00000000       0.00000000       0.00000000
Fe      12.17637877       7.03003556       0.82849764  F        7       0.00000000       0.00000000       0.00000000
Fe       2.02939646       1.17167259       1.65699527  F        6       0.00000000       0.00000000       0.00000000
Fe       6.08818939       1.17167259       1.65699527  F        6       0.00000000       0.00000000       0.00000000
Fe      10.14698231       1.17167259       1.65699527  F        6       0.00000000       0.00000000       0.00000000
Fe       4.05879292       4.68669037       1.65699527  F        6       0.00000000       0.00000000       0.00000000
Fe       8.11758585       4.68669037       1.65699527  F        6       0.00000000       0.00000000       0.00000000
Fe      12.17637877       4.68669037       1.65699527  F        6       0.00000000       0.00000000       0.00000000
Fe       6.08818939       8.20170816       1.65699527  F        6       0.00000000       0.00000000       0.00000000
Fe      10.14698231       8.20170816       1.65699527  F        6       0.00000000       0.00000000       0.00000000
Fe      14.20577523       8.20170816       1.65699527  F        6       0.00000000       0.00000000       0.00000000
Fe      12.32415430       2.48823163       2.20522163  T        5       1.12400151       0.23186148      -0.59763728
Fe       3.91348259       2.48936746       2.20845775  T        5       0.27494346       0.87676740       1.23921979
Fe       8.11879641       2.37935341       2.12164480  T        5       0.68704461      -0.20677450       1.41153769
Fe      14.21042226       6.01101224       2.20907420  T        5       2.63832559      -1.38874299      -2.01878064
Fe       6.09133209       5.60380127       2.23642616  T        5      -0.96932342      -1.76898956       0.84902236
Fe      10.14341195       5.59791438       2.23263775  T        5       0.72666555      -5.10985424      -1.30067322
Fe      16.28251268       9.42750438       2.31172204  T        5       1.79689381      -0.12567946       1.16146602
Fe       8.11184907       9.28646204       2.22940677  T        5      -3.25640592       0.98039929       1.86398171
Fe      12.12724891       9.42241248       2.30687606  T        5      -2.81224913      -3.01610919      -1.58939859
Fe       0.15910880       0.23531844       3.06949619  T        4       0.71761463       0.37568714      -0.98344350
Fe       3.90405791       0.23644857       3.06756628  T        4       1.76516282       1.01713153      -2.07850166
Fe       8.11771404       0.16844616       2.99400641  T        4       0.07252221       0.23690811      -0.30392401
Fe      14.20465294       3.85774400       3.04522971  T        4      -0.63755942       2.47835097       3.51402250
Fe       6.10846206       3.15018229       3.13547080  T        4      -0.35963101      -1.92005299       1.00862062
Fe      10.12242043       3.16295919       3.13619500  T        4      -2.07420705       5.33064248       1.41664369
Fe       4.34001778       7.05063645       3.07062963  T        4      -1.85380853      -0.70750951      -0.52480598
Fe       8.11344644       6.88636589       3.05819803  T        4      -2.34965097      -2.36058533      -2.28851474
Fe      11.89458800       7.04560447       3.06936365  T        4       1.53291188      -3.56469571      -1.24316736
Fe       2.02867775       1.51525192       3.93097915  T        3      -0.40769453       2.13191231       0.62317624
Fe       6.06496670       0.83367605       3.99520181  T        3      -1.20572254      -0.20881651      -1.06377384
Fe      10.17156935       0.83086697       3.99870115  T        3       1.98018272      -1.80316337       0.92254251
Fe       4.27883668       4.69189737       3.94694453  T        3      -2.21680070       0.46922596      -0.08303289
Fe       8.12505249       4.68315485       3.89418010  T        3       4.23815279       1.88846481      -0.48011300
Fe      11.95283299       4.69322800       3.94916354  T        3       0.22953674       1.22522679       1.17673227
Fe       6.30016325       8.42165779       3.92983996  T        3       1.11720573       1.24809340       2.78745438
Fe       9.93899200       8.42083138       3.92566389  T        3       1.14468639       0.77932970       0.41673121
Fe      14.20855194       7.88205739       3.92256037  T        3       1.57629407       0.06247438       1.81490387
Fe      11.97875172       2.26346316       4.47150892  T        2       0.93974909      -3.49481058      -0.83526987
Fe       4.25562341       2.26539810       4.47537096  T        2      -1.39219899      -2.39664192       1.35771929
Fe       8.12094904       2.22064696       4.52807017  T        2       1.90922258       1.43759581       0.72673703
Fe      14.20875882       5.55426779       4.63460447  T        2       1.69404315      -2.47752037      -0.31667155
Fe       6.20558335       6.11010946       4.46644781  T        2      -1.35774967      -2.40036505       1.49469890
Fe      10.02602372       6.11232866       4.46660560  T        2      -0.66602756      -1.13988820       1.58348304
Fe      16.20797288       8.96990591       4.60100467  T        2       1.13997844       0.28876304       0.80800893
Fe       8.12222915       9.87491358       4.47662073  T        2       2.63660852       2.36896875       0.27371262
Fe      12.20737035       8.97099873       4.59529029  T        2       1.01313524       0.90928899      -2.43659064
Fe      17.92174836      10.29093121       5.20440358  T        1      -0.48809597      -1.29490945      -2.15210023
Fe      10.49146281      10.29645810       5.20693034  T        1       1.43141938       1.84249217      -0.71895787
Fe      14.20795022       9.96417376       5.03866417  T        1       1.23494030      -0.19764697       3.94892585
Fe       2.03058646       3.37045345       5.21350080  T        1       0.67575933      -0.19264186       2.73327432
Fe       6.22897258       3.96489853       5.25115657  T        1       0.15429915       3.16583323       3.10629980
Fe      10.00553155       3.95578663       5.24055984  T        1      -0.53093654      -2.00592952      -2.90802620
Fe      15.97888609       6.70557887       5.21059871  T        1       4.91468054       1.82447941       2.33115127
Fe       8.12031678       7.64646890       5.17873748  T        1       1.55075525      -1.10546255       0.30865075
Fe      12.44167685       6.70592559       5.20962889  T        1       0.20254504       2.02159472       1.77997407
N        7.49596102       3.21377362       6.31094253  T        0      -0.05157262       0.07040849       0.28005798
N        8.75027299       3.21940195       6.30789668  T        0       1.62480772       0.87087337      -0.15239802
74
Lattice="12.176378772032349 0.0 0.0 6.088189386016174 10.545053342681582 0.0 0.0 0.0 20.0" Properties=species:S:1:pos:R:3:move_mask:L:1:tags:I:1:momenta:R:3 pbc="T T F"
Fe      12.17637877       2.34334519       0.00000000  F        8       0.00000000       0.00000000       0.00000000
Fe       4.05879292       2.34334519       0.00000000  F        8       0.00000000       0.00000000       0.00000000
Fe       8.11758585       2.34334519       0.00000000  F        8       0.00000000       0.00000000       0.00000000
Fe      14.20577523       5.85836297       0.00000000  F        8       0.00000000       0.00000000       0.00000000
Fe       6.08818939       5.85836297       0.00000000  F        8       0.00000000       0.00000000       0.00000000
Fe      10.14698231       5.85836297       0.00000000  F        8       0.00000000       0.00000000       0.00000000
Fe      16.23517169       9.37338075       0.00000000  F        8       0.00000000       0.00000000       0.00000000
Fe       8.11758585       9.37338075       0.00000000  F        8       0.00000000       0.00000000       0.00000000
Fe      12.17637877       9.37338075       0.00000000  F        8       0.00000000       0.00000000       0.00000000
Fe       0.00000000       0.00000000       0.82849764  F        7       0.00000000       0.00000000       0.00000000
Fe       4.05879292       0.00000000       0.82849764  F        7       0.00000000       0.00000000       0.00000000
Fe       8.11758585       0.00000000       0.82849764  F        7       0.00000000       0.00000000       0.00000000
Fe       2.02939646       3.51501778       0.82849764  F        7       0.00000000       0.00000000       0.00000000
Fe       6.08818939       3.51501778       0.82849764  F        7       0.00000000       0.00000000       0.00000000
Fe      10.14698231       3.51501778       0.82849764  F        7       0.00000000       0.00000000       0.00000000
Fe       4.05879292       7.03003556       0.82849764  F        7       0.00000000       0.00000000       0.00000000
Fe       8.11758585       7.03003556       0.82849764  F        7       0.00000000       0.00000000       0.00000000
Fe      12.17637877       7.03003556       0.82849764  F        7       0.00000000       0.00000000       0.00000000
Fe       2.02939646       1.17167259       1.65699527  F        6       0.00000000       0.00000000       0.00000000
Fe       6.08818939       1.17167259       1.65699527  F        6       0.00000000       0.00000000       0.00000000
Fe      10.14698231       1.17167259       1.65699527  F        6       0.00000000       0.00000000       0.00000000
Fe       4.05879292       4.68669037       1.65699527  F        6       0.00000000       0.00000000       0.00000000
Fe       8.11758585       4.68669037       1.65699527  F        6       0.00000000       0.00000000       0.00000000
Fe      12.17637877       4.68669037       1.65699527  F        6       0.00000000       0.00000000       0.00000000
Fe       6.08818939       8.20170816       1.65699527  F        6       0.00000000       0.00000000       0.00000000
Fe      10.14698231       8.20170816       1.65699527  F        6       0.00000000       0.00000000       0.00000000
Fe      14.20577523       8.20170816       1.65699527  F        6       0.00000000       0.00000000       0.00000000
Fe      12.32514328       2.48843610       2.20469592  T        5       1.12383518       0.23303495      -0.59718024
Fe       3.91372460       2.49013961       2.20954861  T        5       0.27501715       0.87847317       1.24027884
Fe       8.11940101       2.37917140       2.12288743  T        5       0.68712867      -0.20700052       1.41291065
Fe      14.21274455       6.00979036       2.20729720  T        5       2.64020570      -1.38830565      -2.02026884
Fe       6.09047889       5.60224431       2.23717344  T        5      -0.96995633      -1.76995813       0.84956050
Fe      10.14405165       5.59341756       2.23149352  T        5       0.72736556      -5.11088633      -1.29975252
Fe      16.28409436       9.42739358       2.31274436  T        5       1.79818888      -0.12616559       1.16220044
Fe       8.10898310       9.28732462       2.23104747  T        5      -3.25769075       0.98012834       1.86523385
Fe      12.12477366       9.41975777       2.30547728  T        5      -2.81382338      -3.01787867      -1.58994088
Fe       0.15974052       0.23564903       3.06863030  T        4       0.71829640       0.37566223      -0.98479825
Fe       3.90561132       0.23734366       3.06573688  T        4       1.76556469       1.01726223      -2.07957410
Fe       8.11777773       0.16865445       2.99373962  T        4       0.07214281       0.23625981      -0.30206739
Fe      14.20409153       3.85992456       3.04832215  T        4      -0.63866292       2.47765863       3.51450354
Fe       6.10814545       3.14849276       3.13635940  T        4      -0.35993674      -1.91994688       1.01156998
Fe      10.12059552       3.16764987       3.13744091  T        4      -2.07342184       5.33038187       1.41465236
Fe       4.33838642       7.05001368       3.07016793  T        4      -1.85407268      -0.70797289      -0.52448297
Fe       8.11137853       6.88428895       3.05618423  T        4      -2.35054048      -2.35988127      -2.28852496
Fe      11.89593714       7.04246660       3.06826987  T        4       1.53361017      -3.56770623      -1.24270791
Fe       2.02831909       1.51712849       3.93152788  T        3      -0.40739910       2.13339030       0.62394979
Fe       6.06390610       0.83349213       3.99426537  T        3      -1.20466003      -0.20924560      -1.06477717
Fe      10.17331156       0.82927998       3.99951285  T        3       1.97942179      -1.80391667       0.92226619
Fe       4.27688562       4.69231011       3.94687159  T        3      -2.21781445       0.46881399      -0.08264950
Fe       8.12878239       4.68481694       3.89375773  T        3       4.23951148       1.88929204      -0.47972839
Fe      11.95303542       4.69430650       3.95019943  T        3       0.23080256       1.22625181       1.17789972
Fe       6.30114705       8.42275583       3.93229291  T        3       1.11918764       1.24737502       2.78788441
Fe       9.93999929       8.42151706       3.92603023  T        3       1.14475534       0.77900269       0.41583351
Fe      14.20993932       7.88211265       3.92415769  T        3       1.57713194       0.06300779       1.81568899
Fe      11.97957881       2.26038702       4.47077379  T        2       0.94012709      -3.49700355      -0.83573225
Fe       4.25439795       2.26328836       4.47656633  T        2      -1.39324352      -2.39870280       1.35936769
Fe       8.12262944       2.22191255       4.52871053  T        2       1.91022358       1.43921432       0.72923306
Fe      14.21025002       5.55208820       4.63432634  T        2       1.69544659      -2.47600667      -0.31509253
Fe       6.20438827       6.10799703       4.46776332  T        2      -1.35869044      -2.40097631       1.49535513
Fe      10.02543746       6.11132603       4.46799879  T        2      -0.66649394      -1.13870395       1.58287981
Fe      16.20897611       8.97015969       4.60171626  T        2       1.14012845       0.28795034       0.80943412
Fe       8.12455016       9.87699865       4.47686169  T        2       2.63915445       2.37027598       0.27401018
Fe      12.20826220       8.97179875       4.59314577  T        2       1.01416038       0.90906444      -2.43796029
Fe      17.92131919      10.28979181       5.20251009  T        1      -0.48722120      -1.29478496      -2.15127647
Fe      10.49272259      10.29808001       5.20629749  T        1       1.43199798       1.84408072      -0.71947552
Fe      14.20903729       9.96399977       5.04213933  T        1       1.23599950      -0.19775683       3.94972731
Fe       2.03118136       3.37028418       5.21590649  T        1       0.67648107      -0.19213295       2.73503237
Fe       6.22910919       3.96768449       5.25389049  T        1       0.15669665       3.16640595       3.10773516
Fe      10.00506481       3.95402121       5.23800099  T        1      -0.52958614      -2.00655842      -2.90772537
Fe      15.98321202       6.70718441       5.21265035  T        1       4.91803812       1.82481804       2.33205960
Fe       8.12168194       7.64549560       5.17900823  T        1       1.55233536      -1.10685298       0.30635045
Fe      12.44185543       6.70770479       5.21119504  T        1       0.20358848       2.02251702       1.77954728
N        7.49581586       3.21401959       6.31192235  T        0      -0.02623241       0.06988467       0.27808801
N        8.75593436       3.22245459       6.30736191  T        0       1.59712171       0.86909540      -0.15241757
74
Lattice="12.176378772032349 0.0 0.0 6.088189386016174 10.545053342681582 0.0 0.0 0.0 20.0" Properties=species:S:1:pos:R:3:move_mask:L:1:tags:I:1:momenta:R:3 pbc="T T F"
Fe      12.17637877       2.34334519       0.00000000  F        8       0.00000000       0.00000000       0.00000000
Fe       4.05879292       2.34334519       0.00000000  F        8       0.00000000       0.00000000       0.00000000
Fe       8.11758585       2.34334519       0.00000000  F        8       0.00000000       0.00000000       0.00000000
Fe      14.20577523       5.85836297       0.00000000  F        8       0.00000000       0.00000000       0.00000000
Fe       6.08818939       5.85836297       0.00000000  F        8       0.00000000       0.00000000       0.00000000
Fe      10.14698231       5.85836297       0.00000000  F        8       0.00000000       0.00000000       0.00000000
Fe      16.23517169       9.37338075       0.00000000  F        8       0.00000000       0.00000000       0.00000000
Fe       8.11758585       9.37338075       0.00000000  F        8       0.00000000       0.00000000       0.00000000
Fe      12.17637877       9.37338075       0.00000000  F        8       0.00000000       0.00000000       0.00000000
Fe       0.00000000       0.00000000       0.82849764  F        7       0.00000000       0.00000000       0.00000000
Fe       4.05879292       0.00000000       0.82849764  F        7       0.00000000       0.00000000       0.00000000
Fe       8.11758585       0.00000000       0.82849764  F        7       0.00000000       0.00000000       0.00000000
Fe       2.02939646       3.51501778       0.82849764  F        7       0.00000000       0.00000000       0.00000000
Fe       6.08818939       3.51501778       0.82849764  F        7       0.00000000       0.00000000       0.00000000
Fe      10.14698231       3.51501778       0.82849764  F        7       0.00000000       0.00000000       0.00000000
Fe       4.05879292       7.03003556       0.82849764  F        7       0.00000000       0.00000000       0.00000000
Fe       8.11758585       7.03003556       0.82849764  F        7       0.00000000       0.00000000       0.00000000
Fe      12.17637877       7.03003556       0.82849764  F        7       0.00000000       0.00000000       0.00000000
Fe       2.02939646       1.17167259       1.65699527  F        6       0.00000000       0.00000000       0.00000000
Fe       6.08818939       1.17167259       1.65699527  F        6       0.00000000       0.00000000       0.00000000
Fe      10.14698231       1.17167259       1.65699527  F        6       0.00000000       0.00000000       0.00000000
Fe       4.05879292       4.68669037       1.65699527  F        6       0.00000000       0.00000000       0.00000000
Fe       8.11758585       4.68669037       1.65699527  F        6       0.00000000       0.00000000       0.00000000
Fe      12.17637877       4.68669037       1.65699527  F        6       0.00000000       0.00000000       0.00000000
Fe       6.08818939       8.20170816       1.65699527  F        6       0.00000000       0.00000000       0.00000000
Fe      10.14698231       8.20170816       1.65699527  F        6       0.00000000       0.00000000       0.00000000
Fe      14.20577523       8.20170816       1.65699527  F        6       0.00000000       0.00000000       0.00000000
Fe      12.32611480       2.48863816       2.20417987  T        5       1.10384382       0.23044490      -0.58605737
Fe       3.91396235       2.49089994       2.21062138  T        5       0.27005398       0.86516938       1.21963013
Fe       8.11999509       2.37899230       2.12410959  T        5       0.67504678      -0.20373060       1.38951177
Fe      14.21502803       6.00859037       2.20554989  T        5       2.59595428      -1.36309774      -1.98637375
Fe       6.08964003       5.60071362       2.23790820  T        5      -0.95357967      -1.74000200       0.83531592
Fe      10.14468083       5.58899856       2.23037037  T        5       0.71539895      -5.02168772      -1.27531753
Fe      16.28564958       9.42728429       2.31374947  T        5       1.76797314      -0.12447574       1.14249140
Fe       8.10616611       9.28817185       2.23266062  T        5      -3.20164851       0.96250399       1.83374149
Fe      12.12234026       9.41714786       2.30410245  T        5      -2.76597615      -2.96664814      -1.56257533
Fe       0.16036185       0.23597378       3.06777823  T        4       0.70647678       0.36894755      -0.96911450
Fe       3.90713789       0.23822316       3.06393852  T        4       1.73479795       0.99937183      -2.04405158
Fe       8.11783990       0.16885831       2.99347946  T        4       0.07033245       0.23096428      -0.29410517
Fe      14.20353881       3.86206621       3.05136068  T        4      -0.62887798       2.43292668       3.45250281
Fe       6.10783416       3.14683299       3.13723546  T        4      -0.35382771      -1.88574060       0.99765528
Fe      10.11880340       3.17225792       3.13866283  T        4      -2.03567968       5.23536230       1.38666748
Fe       4.33678340       7.04940140       3.06971468  T        4      -1.82159564      -0.69597121      -0.51471963
Fe       8.10934598       6.88224913       3.05420576  T        4      -2.31006044      -2.31716909      -2.24793306
Fe      11.89726334       7.03938070       3.06719577  T        4       1.50742247      -3.50848390      -1.22000864
Fe       2.02796705       1.51897357       3.93206761  T        3      -0.39975397       2.09737514       0.61357252
Fe       6.06286520       0.83331102       3.99334433  T        3      -1.18186246      -0.20605677      -1.04725523
Fe      10.17502241       0.82772008       4.00031002  T        3       1.94328254      -1.77287860       0.90552995
Fe       4.27496776       4.69271520       3.94680035  T        3      -2.17982289       0.45996605      -0.08062405
Fe       8.13244822       4.68645067       3.89334323  T        3       4.16613389       1.85680021      -0.47057619
Fe      11.95323561       4.69536717       3.95121836  T        3       0.22845389       1.20596286       1.15864272
Fe       6.30211564       8.42383381       3.93470336  T        3       1.10204472       1.22416388       2.73924429
Fe       9.94098899       8.42219033       3.92638931  T        3       1.12458609       0.76467196       0.40745430
Fe      14.21130321       7.88216731       3.92572779  T        3       1.55029981       0.06219669       1.78458170
Fe      11.98039175       2.25736272       4.47005101  T        2       0.92392227      -3.43769328      -0.82171826
Fe       4.25319293       2.26121363       4.47774235  T        2      -1.36992725      -2.35872105       1.33734759
Fe       8.12428138       2.22315763       4.52934230  T        2       1.87769537       1.41593470       0.71985719
Fe      14.21171649       5.54994846       4.63405480  T        2       1.66729186      -2.42994407      -0.30718933
Fe       6.20321315       6.10592101       4.46905642  T        2      -1.33598350      -2.35926659       1.46971805
Fe      10.02486104       6.11034222       4.46936689  T        2      -0.65521406      -1.11688568       1.55394523
Fe      16.20996181       8.97040823       4.60241671  T        2       1.11990993       0.28186918       0.79672829
Fe       8.12683309       9.87904847       4.47709874  T        2       2.59585708       2.32996741       0.26958271
Fe      12.20913953       8.97258457       4.59103733  T        2       0.99776480       0.89279271      -2.39691925
Fe      17.92089842      10.28867249       5.20065073  T        1      -0.47743744      -1.27175309      -2.11187081
Fe      10.49396090      10.29967505       5.20567523  T        1       1.40749019       1.81341984      -0.70737538
Fe      14.21010639       9.96382878       5.04555437  T        1       1.21553998      -0.19424861       3.88083958
Fe       2.03176656       3.37011828       5.21827200  T        1       0.66548100      -0.18833675       2.68943771
Fe       6.22924593       3.97042225       5.25657794  T        1       0.15728696       3.11121430       3.05463085
Fe      10.00460770       3.95228624       5.23548739  T        1      -0.51823644      -1.97154001      -2.85565642
Fe      15.98746549       6.70876222       5.21466693  T        1       4.83537344       1.79313993       2.29195870
Fe       8.12302479       7.64453803       5.17927190  T        1       1.52698453      -1.08894499       0.29791598
Fe      12.44203201       6.70945383       5.21273326  T        1       0.20150022       1.98814240       1.74738731
N        7.49577857       3.21425968       6.31287666  T        0       0.00889824       0.06829040       0.27035116
N        8.76138115       3.22544661       6.30683660  T        0       1.53076502       0.85138726      -0.14960726
74
Lattice="12.176378772032349 0.0 0.0 6.088189386016174 10.545053342681582 0.0 0.0 0.0 20.0" Properties=species:S:1:pos:R:3:move_mask:L:1:tags:I:1:momenta:R:3 pbc="T T F"
Fe      12.17637877       2.34334519       0.00000000  F        8       0.00000000       0.00000000       0.00000000
Fe       4.05879292       2.34334519       0.00000000  F        8       0.00000000       0.00000000       0.00000000
Fe       8.11758585       2.34334519       0.00000000  F        8       0.00000000       0.00000000       0.00000000
Fe      14.20577523       5.85836297       0.00000000  F        8       0.00000000       0.00000000       0.00000000
Fe       6.08818939       5.85836297       0.00000000  F        8       0.00000000       0.00000000       0.00000000
Fe      10.14698231       5.85836297       0.00000000  F        8       0.00000000       0.00000000       0.00000000
Fe      16.23517169       9.37338075       0.00000000  F        8       0.00000000       0.00000000       0.00000000
Fe       8.11758585       9.37338075       0.00000000  F        8       0.00000000       0.00000000       0.00000000
Fe      12.17637877       9.37338075       0.00000000  F        8       0.00000000       0.00000000       0.00000000
Fe       0.00000000       0.00000000       0.82849764  F        7       0.00000000       0.00000000       0.00000000
Fe       4.05879292       0.00000000       0.82849764  F        7       0.00000000       0.00000000       0.00000000
Fe       8.11758585       0.00000000       0.82849764  F        7       0.00000000       0.00000000       0.00000000
Fe       2.02939646       3.51501778       0.82849764  F        7       0.00000000       0.00000000       0.00000000
Fe       6.08818939       3.51501778       0.82849764  F        7       0.00000000       0.00000000       0.00000000
Fe      10.14698231       3.51501778       0.82849764  F        7       0.00000000       0.00000000       0.00000000
Fe       4.05879292       7.03003556       0.82849764  F        7       0.00000000       0.00000000       0.00000000
Fe       8.11758585       7.03003556       0.82849764  F        7       0.00000000       0.00000000       0.00000000
Fe      12.17637877       7.03003556       0.82849764  F        7       0.00000000       0.00000000       0.00000000
Fe       2.02939646       1.17167259       1.65699527  F        6       0.00000000       0.00000000       0.00000000
Fe       6.08818939       1.17167259       1.65699527  F        6       0.00000000       0.00000000       0.00000000
Fe      10.14698231       1.17167259       1.65699527  F        6       0.00000000       0.00000000       0.00000000
Fe       4.05879292       4.68669037       1.65699527  F        6       0.00000000       0.00000000       0.00000000
Fe       8.11758585       4.68669037       1.65699527  F        6       0.00000000       0.00000000       0.00000000
Fe      12.17637877       4.68669037       1.65699527  F        6       0.00000000       0.00000000       0.00000000
Fe       6.08818939       8.20170816       1.65699527  F        6       0.00000000       0.00000000       0.00000000
Fe      10.14698231       8.20170816       1.65699527  F        6       0.00000000       0.00000000       0.00000000
Fe      14.20577523       8.20170816       1.65699527  F        6       0.00000000       0.00000000       0.00000000
Fe      12.32708521       2.48884150       2.20366490  T        5       1.10242899       0.23204811      -0.58468005
Fe       3.91419969       2.49166165       2.21169424  T        5       0.26945543       0.86686542       1.21964899
Fe       8.12058858       2.37881299       2.12533193  T        5       0.67427702      -0.20403578       1.38961501
Fe      14.21731147       6.00739233       2.20380268  T        5       2.59577377      -1.36056060      -1.98612782
Fe       6.08880131       5.59918321       2.23864297  T        5      -0.95332954      -1.73959713       0.83531437
Fe      10.14531021       5.58458317       2.22924992  T        5       0.71561783      -5.01687963      -1.27179168
Fe      16.28720466       9.42717460       2.31475429  T        5       1.76768478      -0.12492296       1.14204520
Fe       8.10335061       9.28901791       2.23427348  T        5      -3.19958471       0.96101813       1.83323309
Fe      12.11990763       9.41453870       2.30272833  T        5      -2.76485292      -2.96553434      -1.56162942
Fe       0.16098338       0.23629810       3.06692539  T        4       0.70669680       0.36837746      -0.97004041
Fe       3.90866326       0.23910180       3.06214089  T        4       1.73318651       0.99821578      -2.04298654
Fe       8.11790146       0.16906077       2.99322221  T        4       0.06955831       0.22910151      -0.29037744
Fe      14.20298518       3.86420468       3.05439595  T        4      -0.63002932       2.42880190       3.44810688
Fe       6.10752298       3.14517527       3.13811452  T        4      -0.35360440      -1.88303791       1.00141487
Fe      10.11701426       3.17686017       3.13988040  T        4      -2.03183796       5.22772217       1.38101448
Fe       4.33518179       7.04878930       3.06926241  T        4      -1.81973899      -0.69569537      -0.51343861
Fe       8.10731456       6.88021247       3.05222956  T        4      -2.30852704      -2.31308427      -2.24494464
Fe      11.89858906       7.03629431       3.06612357  T        4       1.50675458      -3.50891828      -1.21753728
Fe       2.02761583       1.52081829       3.93260730  T        3      -0.39868092       2.09675928       0.61336388
Fe       6.06182692       0.83312963       3.99242299  T        3      -1.17849281      -0.20639312      -1.04758499
Fe      10.17673027       0.82616105       4.00110590  T        3       1.93939468      -1.77168335       0.90385110
Fe       4.27305077       4.69311930       3.94672975  T        3      -2.17859313       0.45869970      -0.07977802
Fe       8.13611165       4.68808351       3.89292987  T        3       4.16286736       1.85554629      -0.46905478
Fe      11.95343733       4.69642809       3.95223776  T        3       0.23037008       1.20625130       1.15920848
Fe       6.30308582       8.42490944       3.93711192  T        3       1.10401556       1.22108173       2.73679267
Fe       9.94197771       8.42286230       3.92674704  T        3       1.12329695       0.76296367       0.40580868
Fe      14.21266668       7.88222207       3.92729721  T        3       1.54968120       0.06219807       1.78362143
Fe      11.98120422       2.25433927       4.46932819  T        2       0.92325938      -3.43635380      -0.82176995
Fe       4.25198791       2.25913879       4.47891905  T        2      -1.36985590      -2.35865090       1.33810444
Fe       8.12593277       2.22440353       4.52997693  T        2       1.87689676       1.41689969       0.72345781
Fe      14.21318319       5.54781333       4.63378592  T        2       1.66749622      -2.42394269      -0.30372795
Fe       6.20203795       6.10384649       4.47034892  T        2      -1.33605229      -2.35726986       1.46888556
Fe      10.02428477       6.10936116       4.47073256  T        2      -0.65495771      -1.11333918       1.55078275
Fe      16.21094631       8.97065556       4.60311790  T        2       1.11827446       0.28035332       0.79754595
Fe       8.12911691       9.88109764       4.47733595  T        2       2.59688220       2.32903566       0.26979298
Fe      12.21001751       8.97336940       4.58892900  T        2       0.99859648       0.89153648      -2.39676192
Fe      17.92047926      10.28755449       5.19879478  T        1      -0.47538252      -1.27005016      -2.10738503
Fe      10.49519871      10.30127026       5.20505304  T        1       1.40682053       1.81351198      -0.70723726
Fe      14.21117573       9.96365803       5.04896669  T        1       1.21579234      -0.19388587       3.87723164
Fe       2.03235210       3.36995285       5.22063787  T        1       0.66587152      -0.18782007       2.68993323
Fe       6.22938590       3.97315789       5.25926434  T        1       0.16139624       3.10844040       3.05317601
Fe      10.00415311       3.95055278       5.23297718  T        1      -0.51492826      -1.96941719      -2.85118504
Fe      15.99171864       6.71033899       5.21668247  T        1       4.83474069       1.79180092       2.29053533
Fe       8.12436828       7.64357988       5.17953233  T        1       1.52773796      -1.08955664       0.29383018
Fe      12.44220992       6.71120243       5.21426913  T        1       0.20322263       1.98757920       1.74430753
N        7.49587827       3.21449858       6.31381859  T        0       0.05183879       0.06805503       0.26636834
N        8.76667115       3.22842622       6.30631257  T        0       1.48137585       0.84741547      -0.14908129
74
Lattice="12.176378772032349 0.0 0.0 6.088189386016174 10.545053342681582 0.0 0.0 0.0 20.0" Properties=species:S:1:pos:R:3:move_mask:L:1:tags:I:1:momenta:R:3 pbc="T T F"
Fe      12.17637877       2.34334519       0.00000000  F        8       0.00000000       0.00000000       0.00000000
Fe       4.05879292       2.34334519       0.00000000  F        8       0.00000000       0.00000000       0.00000000
Fe       8.11758585       2.34334519       0.00000000  F        8       0.00000000       0.00000000       0.00000000
Fe      14.20577523       5.85836297       0.00000000  F        8       0.00000000       0.00000000       0.00000000
Fe       6.08818939       5.85836297       0.00000000  F        8       0.00000000       0.00000000       0.00000000
Fe      10.14698231       5.85836297       0.00000000  F        8       0.00000000       0.00000000       0.00000000
Fe      16.23517169       9.37338075       0.00000000  F        8       0.00000000       0.00000000       0.00000000
Fe       8.11758585       9.37338075       0.00000000  F        8       0.00000000       0.00000000       0.00000000
Fe      12.17637877       9.37338075       0.00000000  F        8       0.00000000       0.00000000       0.00000000
Fe       0.00000000       0.00000000       0.82849764  F        7       0.00000000       0.00000000       0.00000000
Fe       4.05879292       0.00000000       0.82849764  F        7       0.00000000       0.00000000       0.00000000
Fe       8.11758585       0.00000000       0.82849764  F        7       0.00000000       0.00000000       0.00000000
Fe       2.02939646       3.51501778       0.82849764  F        7       0.00000000       0.00000000       0.00000000
Fe       6.08818939       3.51501778       0.82849764  F        7       0.00000000       0.00000000       0.00000000
Fe      10.14698231       3.51501778       0.82849764  F        7       0.00000000       0.00000000       0.00000000
Fe       4.05879292       7.03003556       0.82849764  F        7       0.00000000       0.00000000       0.00000000
Fe       8.11758585       7.03003556       0.82849764  F        7       0.00000000       0.00000000       0.00000000
Fe      12.17637877       7.03003556       0.82849764  F        7       0.00000000       0.00000000       0.00000000
Fe       2.02939646       1.17167259       1.65699527  F        6       0.00000000       0.00000000       0.00000000
Fe       6.08818939       1.17167259       1.65699527  F        6       0.00000000       0.00000000       0.00000000
Fe      10.14698231       1.17167259       1.65699527  F        6       0.00000000       0.00000000       0.00000000
Fe       4.05879292       4.68669037       1.65699527  F        6       0.00000000       0.00000000       0.00000000
Fe       8.11758585       4.68669037       1.65699527  F        6       0.00000000       0.00000000       0.00000000
Fe      12.17637877       4.68669037       1.65699527  F        6       0.00000000       0.00000000       0.00000000
Fe       6.08818939       8.20170816       1.65699527  F        6       0.00000000       0.00000000       0.00000000
Fe      10.14698231       8.20170816       1.65699527  F        6       0.00000000       0.00000000       0.00000000
Fe      14.20577523       8.20170816       1.65699527  F        6       0.00000000       0.00000000       0.00000000
Fe      12.32805647       2.48904685       2.20315009  T        5       1.10325221       0.23446282      -0.58436737
Fe       3.91443693       2.49242672       2.21276951  T        5       0.26922551       0.87079857       1.22230853
Fe       8.12118267       2.37863294       2.12655706  T        5       0.67482867      -0.20490781       1.39268432
Fe      14.21959987       6.00619407       2.20205179  T        5       2.60128524      -1.36050846      -1.99017236
Fe       6.08796096       5.59764973       2.23937941  T        5      -0.95510293      -1.74301844       0.83720695
Fe      10.14594122       5.58016252       2.22813041  T        5       0.71745205      -5.02214829      -1.27027605
Fe      16.28876294       9.42706426       2.31576091  T        5       1.77118632      -0.12567824       1.14396577
Fe       8.10053079       9.28986445       2.23588943  T        5      -3.20413872       0.96142069       1.83659514
Fe      12.11747063       9.41192478       2.30135201  T        5      -2.76955599      -2.97067351      -1.56399356
Fe       0.16160653       0.23662259       3.06606974  T        4       0.70851684       0.36848749      -0.97326933
Fe       3.91019049       0.23998128       3.06034028  T        4       1.73505958       0.99900030      -2.04614713
Fe       8.11796241       0.16926182       2.99296803  T        4       0.06876901       0.22723343      -0.28648953
Fe      14.20242916       3.86634397       3.05743370  T        4      -0.63284584       2.42924151       3.45021360
Fe       6.10721136       3.14351646       3.13899922  T        4      -0.35403693      -1.88392282       1.00814683
Fe      10.11522480       3.18146531       3.14109516  T        4      -2.03175196       5.22995589       1.37708622
Fe       4.33357836       7.04817610       3.06881038  T        4      -1.82155743      -0.69685594      -0.51301103
Fe       8.10528006       6.87817518       3.05025182  T        4      -2.31177318      -2.31330870      -2.24629355
Fe      11.89991714       7.03320057       3.06505137  T        4       1.50932036      -3.51715126      -1.21722538
Fe       2.02726487       1.52266652       3.93314791  T        3      -0.39825417       2.10053406       0.61425476
Fe       6.06078957       0.83294751       3.99149926  T        3      -1.17702515      -0.20720916      -1.05028885
Fe      10.17843819       0.82459968       4.00190194  T        3       1.93896404      -1.77410471       0.90382106
Fe       4.27113068       4.69352309       3.94665984  T        3      -2.18187362       0.45819204      -0.07890194
Fe       8.13978012       4.68971878       3.89251710  T        3       4.16807011       1.85807002      -0.46819087
Fe      11.95364136       4.69749169       3.95326003  T        3       0.23320155       1.20929099       1.16248396
Fe       6.30406011       8.42598446       3.93952357  T        3       1.10884628       1.21998213       2.74000021
Fe       9.94296742       8.42353411       3.92710404  T        3       1.12424740       0.76255405       0.40485049
Fe      14.21403261       7.88227685       3.92886922  T        3       1.55234802       0.06209834       1.78641587
Fe      11.98201785       2.25131040       4.46860365  T        2       0.92447390      -3.44214207      -0.82373007
Fe       4.25078025       2.25705942       4.48009910  T        2      -1.37278261      -2.36362654       1.34188551
Fe       8.12758709       2.22565316       4.53061650  T        2       1.88005195       1.42116363       0.72938483
Fe      14.21465339       5.54567926       4.63351985  T        2       1.67140874      -2.42199083      -0.30010587
Fe       6.20086001       6.10176924       4.47164351  T        2      -1.33915165      -2.36007817       1.47112601
Fe      10.02370748       6.10838134       4.47209823  T        2      -0.65603424      -1.11149158       1.55038742
Fe      16.21193138       8.97090201       4.60382140  T        2       1.11863735       0.27920402       0.80012540
Fe       8.13140688       9.88315051       4.47757391  T        2       2.60387364       2.33303304       0.27066057
Fe      12.21089832       8.97415480       4.58681600  T        2       1.00191882       0.89207920      -2.40205147
Fe      17.92006115      10.28643560       5.19693907  T        1      -0.47395310      -1.27084510      -2.10652396
Fe      10.49643868      10.30286912       5.20442960  T        1       1.40916972       1.81755161      -0.70860110
Fe      14.21224772       9.96348729       5.05238320  T        1       1.21879473      -0.19379745       3.88149301
Fe       2.03293934       3.36978748       5.22300968  T        1       0.66782241      -0.18778964       2.69676717
Fe       6.22953019       3.97589703       5.26195538  T        1       0.16674065       3.11204376       3.05819921
Fe      10.00370077       3.94881757       5.23046570  T        1      -0.51188827      -1.97099916      -2.85203882
Fe      15.99598074       6.71191806       5.21870117  T        1       4.84467613       1.79427931       2.29389365
Fe       8.12571554       7.64261903       5.17978942  T        1       1.53203514      -1.09260454       0.28963236
Fe      12.44238993       6.71295448       5.21580545  T        1       0.20579490       1.99143460       1.74443481
N        7.49614258       3.21473756       6.31474711  T        0       0.10216788       0.06819842       0.26210254
N        8.77178343       3.23139720       6.30578974  T        0       1.42649247       0.84450557      -0.14853088
74
Lattice="12.176378772032349 0.0 0.0 6.088189386016174 10.545053342681582 0.0 0.0 0.0 20.0" Properties=species:S:1:pos:R:3:move_mask:L:1:tags:I:1:momenta:R:3 pbc="T T F"
Fe      12.17637877       2.34334519       0.00000000  F        8       0.00000000       0.00000000       0.00000000
Fe       4.05879292       2.34334519       0.00000000  F        8       0.00000000       0.00000000       0.00000000
Fe       8.11758585       2.34334519       0.00000000  F        8       0.00000000       0.00000000       0.00000000
Fe      14.20577523       5.85836297       0.00000000  F        8       0.00000000       0.00000000       0.00000000
Fe       6.08818939       5.85836297       0.00000000  F        8       0.00000000       0.00000000       0.00000000
Fe      10.14698231       5.85836297       0.00000000  F        8       0.00000000       0.00000000       0.00000000
Fe      16.23517169       9.37338075       0.00000000  F        8       0.00000000       0.00000000       0.00000000
Fe       8.11758585       9.37338075       0.00000000  F        8       0.00000000       0.00000000       0.00000000
Fe      12.17637877       9.37338075       0.00000000  F        8       0.00000000       0.00000000       0.00000000
Fe       0.00000000       0.00000000       0.82849764  F        7       0.00000000       0.00000000       0.00000000
Fe       4.05879292       0.00000000       0.82849764  F        7       0.00000000       0.00000000       0.00000000
Fe       8.11758585       0.00000000       0.82849764  F        7       0.00000000       0.00000000       0.00000000
Fe       2.02939646       3.51501778       0.82849764  F        7       0.00000000       0.00000000       0.00000000
Fe       6.08818939       3.51501778       0.82849764  F        7       0.00000000       0.00000000       0.00000000
Fe      10.14698231       3.51501778       0.82849764  F        7       0.00000000       0.00000000       0.00000000
Fe       4.05879292       7.03003556       0.82849764  F        7       0.00000000       0.00000000       0.00000000
Fe       8.11758585       7.03003556       0.82849764  F        7       0.00000000       0.00000000       0.00000000
Fe      12.17637877       7.03003556       0.82849764  F        7       0.00000000       0.00000000       0.00000000
Fe       2.02939646       1.17167259       1.65699527  F        6       0.00000000       0.00000000       0.00000000
Fe       6.08818939       1.17167259       1.65699527  F        6       0.00000000       0.00000000       0.00000000
Fe      10.14698231       1.17167259       1.65699527  F        6       0.00000000       0.00000000       0.00000000
Fe       4.05879292       4.68669037       1.65699527  F        6       0.00000000       0.00000000       0.00000000
Fe       8.11758585       4.68669037       1.65699527  F        6       0.00000000       0.00000000       0.00000000
Fe      12.17637877       4.68669037       1.65699527  F        6       0.00000000       0.00000000       0.00000000
Fe       6.08818939       8.20170816       1.65699527  F        6       0.00000000       0.00000000       0.00000000
Fe      10.14698231       8.20170816       1.65699527  F        6       0.00000000       0.00000000       0.00000000
Fe      14.20577523       8.20170816       1.65699527  F        6       0.00000000       0.00000000       0.00000000
Fe      12.32902292       2.48925331       2.20263854  T        5       1.09763687       0.23585242      -0.58052420
Fe       3.91467255       2.49319109       2.21384105  T        5       0.26724836       0.87013218       1.21800204
Fe       8.12177383       2.37845309       2.12777798  T        5       0.67139401      -0.20473756       1.38777390
Fe      14.22188026       6.00500279       2.20030722  T        5       2.59203969      -1.35223874      -1.98287073
Fe       6.08712381       5.59612185       2.24011340  T        5      -0.95138785      -1.73656752       0.83441336
Fe      10.14657031       5.57576248       2.22701886  T        5       0.71526491      -4.99798937      -1.26077616
Fe      16.29031550       9.42695387       2.31676350  T        5       1.76455566      -0.12575895       1.13925680
Fe       8.09772299       9.29070651       2.23749920  T        5      -3.19011504       0.95615024       1.82938914
Fe      12.11504329       9.40932113       2.29998139  T        5      -2.75831756      -2.95871672      -1.55737445
Fe       0.16222779       0.23694529       3.06521598  T        4       0.70636896       0.36637665      -0.97115882
Fe       3.91171065       0.24085640       3.05854712  T        4       1.72677010       0.99386445      -2.03744472
Fe       8.11802224       0.16945987       2.99271904  T        4       0.06742071       0.22356748      -0.28018109
Fe      14.20187367       3.86847130       3.06045577  T        4      -0.63236640       2.41511843       3.43168177
Fe       6.10690117       3.14186643       3.13988519  T        4      -0.35234368      -1.87357576       1.00993280
Fe      10.11344577       3.18604585       3.14229906  T        4      -2.01944147       5.20092175       1.36400874
Fe       4.33198248       7.04756537       3.06836138  T        4      -1.81273640      -0.69397528      -0.50939928
Fe       8.10325426       6.87614947       3.04828426  T        4      -2.30162628      -2.29963985      -2.23431969
Fe      11.90123997       7.03011693       3.06398569  T        4       1.50326128      -3.50553798      -1.20949687
Fe       2.02691635       1.52450758       3.93368616  T        3      -0.39533807       2.09218852       0.61141598
Fe       6.05975964       0.83276569       3.99057831  T        3      -1.16818858      -0.20687201      -1.04711111
Fe      10.18013579       0.82304508       4.00269333  T        3       1.92672406      -1.76619037       0.89833150
Fe       4.26921862       4.69392405       3.94659117  T        3      -2.17249764       0.45483207      -0.07736609
Fe       8.14343227       4.69134695       3.89210756  T        3       4.14895821       1.84976728      -0.46430366
Fe      11.95384691       4.69855204       3.95427950  T        3       0.23512095       1.20557472       1.15934130
Fe       6.30503335       8.42705216       3.94192434  T        3       1.10783695       1.21125689       2.72732239
Fe       9.94395229       8.42420162       3.92745811  T        3       1.11859848       0.75744711       0.40139473
Fe      14.21539316       7.88233114       3.93043479  T        3       1.54609496       0.06141027       1.77892177
Fe      11.98282792       2.24829364       4.46788142  T        2       0.92029942      -3.42798842      -0.82111463
Fe       4.24957681       2.25498741       4.48127588  T        2      -1.36792175      -2.35506934       1.33815093
Fe       8.12923481       2.22689960       4.53125799  T        2       1.87237304       1.41752827       0.73185248
Fe      14.21611879       5.54355945       4.63325883  T        2       1.66588580      -2.40502294      -0.29393779
Fe       6.19968592       6.09970135       4.47293274  T        2      -1.33475993      -2.34913015       1.46487874
Fe      10.02313254       6.10740898       4.47345560  T        2      -0.65328341      -1.10258224       1.54057414
Fe      16.21291104       8.97114595       4.60452321  T        2       1.11219130       0.27621216       0.79818230
Fe       8.13369025       9.88519529       4.47781133  T        2       2.59637130       2.32362595       0.27006087
Fe      12.21177724       8.97493621       4.58471014  T        2       0.99986238       0.88740484      -2.39390883
Fe      17.91964683      10.28532243       5.19509497  T        1      -0.46940119      -1.26413640      -2.09269925
Fe      10.49767372      10.30446254       5.20380848  T        1       1.40345774       1.81125097      -0.70589221
Fe      14.21331637       9.96331766       5.05578398  T        1       1.21497153      -0.19246328       3.86311255
Fe       2.03352504       3.36962303       5.22537437  T        1       0.66608760      -0.18676926       2.68874810
Fe       6.22967875       3.97862375       5.26463563  T        1       0.17200203       3.09754686       3.04565830
Fe      10.00325405       3.94709100       5.22796798  T        1      -0.50501274      -1.96076786      -2.83578556
Fe      16.00022763       6.71349039       5.22071137  T        1       4.82712221       1.78647419       2.28400277
Fe       8.12705909       7.64166088       5.18004103  T        1       1.52783912      -1.08950605       0.28303471
Fe      12.44257137       6.71470010       5.21733298  T        1       0.20759952       1.98406101       1.73404796
N        7.49659370       3.21497614       6.31565396  T        0       0.15833830       0.06821509       0.25550490
N        8.77666014       3.23433986       6.30527248  T        0       1.35559543       0.83598337      -0.14669858
74
Lattice="12.176378772032349 0.0 0.0 6.088189386016174 10.545053342681582 0.0 0.0 0.0 20.0" Properties=species:S:1:pos:R:3:move_mask:L:1:tags:I:1:momenta:R:3 pbc="T T F"
Fe      12.17637877       2.34334519       0.00000000  F        8       0.00000000       0.00000000       0.00000000
Fe       4.05879292       2.34334519       0.00000000  F        8       0.00000000       0.00000000       0.00000000
Fe       8.11758585       2.34334519       0.00000000  F        8       0.00000000       0.00000000       0.00000000
Fe      14.20577523       5.85836297       0.00000000  F        8       0.00000000       0.00000000       0.00000000
Fe       6.08818939       5.85836297       0.00000000  F        8       0.00000000       0.00000000       0.00000000
Fe      10.14698231       5.85836297       0.00000000  F        8       0.00000000       0.00000000       0.00000000
Fe      16.23517169       9.37338075       0.00000000  F        8       0.00000000       0.00000000       0.00000000
Fe       8.11758585       9.37338075       0.00000000  F        8       0.00000000       0.00000000       0.00000000
Fe      12.17637877       9.37338075       0.00000000  F        8       0.00000000       0.00000000       0.00000000
Fe       0.00000000       0.00000000       0.82849764  F        7       0.00000000       0.00000000       0.00000000
Fe       4.05879292       0.00000000       0.82849764  F        7       0.00000000       0.00000000       0.00000000
Fe       8.11758585       0.00000000       0.82849764  F        7       0.00000000       0.00000000       0.00000000
Fe       2.02939646       3.51501778       0.82849764  F        7       0.00000000       0.00000000       0.00000000
Fe       6.08818939       3.51501778       0.82849764  F        7       0.00000000       0.00000000       0.00000000
Fe      10.14698231       3.51501778       0.82849764  F        7       0.00000000       0.00000000       0.00000000
Fe       4.05879292       7.03003556       0.82849764  F        7       0.00000000       0.00000000       0.00000000
Fe       8.11758585       7.03003556       0.82849764  F        7       0.00000000       0.00000000       0.00000000
Fe      12.17637877       7.03003556       0.82849764  F        7       0.00000000       0.00000000       0.00000000
Fe       2.02939646       1.17167259       1.65699527  F        6       0.00000000       0.00000000       0.00000000
Fe       6.08818939       1.17167259       1.65699527  F        6       0.00000000       0.00000000       0.00000000
Fe      10.14698231       1.17167259       1.65699527  F        6       0.00000000       0.00000000       0.00000000
Fe       4.05879292       4.68669037       1.65699527  F        6       0.00000000       0.00000000       0.00000000
Fe       8.11758585       4.68669037       1.65699527  F        6       0.00000000       0.00000000       0.00000000
Fe      12.17637877       4.68669037       1.65699527  F        6       0.00000000       0.00000000       0.00000000
Fe       6.08818939       8.20170816       1.65699527  F        6       0.00000000       0.00000000       0.00000000
Fe      10.14698231       8.20170816       1.65699527  F        6       0.00000000       0.00000000       0.00000000
Fe      14.20577523       8.20170816       1.65699527  F        6       0.00000000       0.00000000       0.00000000
Fe      12.32997501       2.48945910       2.20213541  T        5       1.08116757       0.23523470      -0.57082961
Fe       3.91490405       2.49394760       2.21489842  T        5       0.26246018       0.86131824       1.20180543
Fe       8.12235618       2.37827509       2.12898272  T        5       0.66127215      -0.20268999       1.36927424
Fe      14.22413044       6.00383052       2.19858598  T        5       2.55755681      -1.33033071      -1.95621739
Fe       6.08629805       5.59461442       2.24083786  T        5      -0.93833844      -1.71323024       0.82355733
Fe      10.14719141       5.57142665       2.22592672  T        5       0.70616152      -4.92426951      -1.23826455
Fe      16.29184717       9.42684445       2.31775219  T        5       1.74066512      -0.12465354       1.12331900
Fe       8.09495487       9.29153569       2.23908698  T        5      -3.14464942       0.94136597       1.80422810
Fe      12.11264943       9.40675330       2.29862991  T        5      -2.72001025      -2.91772661      -1.53549318
Fe       0.16284117       0.23726297       3.06437227  T        4       0.69739310       0.36057157      -0.95976911
Fe       3.91320867       0.24171843       3.05677908  T        4       1.70136220       0.97880743      -2.00866057
Fe       8.11808025       0.16965259       2.99247831  T        4       0.06525518       0.21723898      -0.27039517
Fe      14.20132386       3.87056530       3.06343186  T        4      -0.62601988       2.37672492       3.37871785
Fe       6.10659551       3.14024168       3.14076445  T        4      -0.34710837      -1.84446933       1.00261096
Fe      10.11169506       3.19055588       3.14347928  T        4      -1.98681281       5.11972800       1.33634976
Fe       4.33040992       7.04696312       3.06792001  T        4      -1.78598798      -0.68425449      -0.50056750
Fe       8.10125710       6.87415569       3.04634650  T        4      -2.26881114      -2.26284842      -2.20005012
Fe      11.90254465       7.02707332       3.06293732  T        4       1.48251581      -3.45989377      -1.18950823
Fe       2.02657386       1.52632340       3.93421659  T        3      -0.38835337       2.06327836       0.60238504
Fe       6.05874772       0.83258592       3.98966904  T        3      -1.14731557      -0.20453443      -1.03380958
Fe      10.18180587       0.82151260       4.00347211  T        3       1.89494595      -1.74081769       0.88378320
Fe       4.26733342       4.69431808       3.94652461  T        3      -2.14169110       0.44679877      -0.07486787
Fe       8.14703199       4.69295195       3.89170555  T        3       4.08880575       1.82318875      -0.45555151
Fe      11.95405232       4.69959889       3.95528641  T        3       0.23513830       1.19021662       1.14508744
Fe       6.30599647       8.42810158       3.94429059  T        3       1.09647779       1.19006165       2.68777372
Fe       9.94492259       8.42485804       3.92780563  T        3       1.10185268       0.74461782       0.39384729
Fe      14.21673499       7.88238419       3.93197856  T        3       1.52467992       0.05989418       1.75396490
Fe      11.98362642       2.24531870       4.46716844  T        2       0.90702911      -3.38005290      -0.81059048
Fe       4.24838929       2.25294305       4.48243802  T        2      -1.34974748      -2.32346137       1.32148308
Fe       8.13085976       2.22813083       4.53189569  T        2       1.84629731       1.40021062       0.72776405
Fe      14.21756515       5.54147557       4.63300608  T        2       1.64418061      -2.36342144      -0.28409095
Fe       6.19852701       6.09766325       4.47420394  T        2      -1.31747993      -2.31495981       1.44424159
Fe      10.02256563       6.10645416       4.47479096  T        2      -0.64406740      -1.08220918       1.51518457
Fe      16.21387536       8.97138479       4.60521652  T        2       1.09446578       0.27027840       0.78847991
Fe       8.13594502       9.88721192       4.47804595  T        2       2.56385820       2.29144346       0.26689953
Fe      12.21264596       8.97570588       4.58263174  T        2       0.98836712       0.87394569      -2.36265195
Fe      17.91924069      10.28422604       5.19328129  T        1      -0.45985199      -1.24483665      -2.05752239
Fe      10.49889175      10.30603497       5.20319579  T        1       1.38401788       1.78728403      -0.69625731
Fe      14.21437134       9.96315089       5.05913544  T        1       1.19940761      -0.18911924       3.80654436
Fe       2.03410358       3.36946103       5.22770928  T        1       0.65796726      -0.18401033       2.65498763
Fe       6.22983083       3.98131116       5.26727882  T        1       0.17637926       3.05246812       3.00326033
Fe      10.00281807       3.94539039       5.22550909  T        1      -0.49226314      -1.93082601      -2.79104100
Fe      16.00441796       6.71504060       5.22269332  T        1       4.76259282       1.76118855       2.25165673
Fe       8.12838601       7.64071471       5.18028413  T        1       1.50895914      -1.07585017       0.27296929
Fe      12.44275279       6.71642237       5.21883635  T        1       0.20775785       1.95744750       1.70619530
N        7.49724599       3.21521293       6.31652764  T        0       0.21810554       0.06784999       0.24565433
N        8.78123013       3.23722289       6.30476745  T        0       1.26491284       0.81853041      -0.14292946
74
Lattice="12.176378772032349 0.0 0.0 6.088189386016174 10.545053342681582 0.0 0.0 0.0 20.0" Properties=species:S:1:pos:R:3:move_mask:L:1:tags:I:1:momenta:R:3 pbc="T T F"
Fe      12.17637877       2.34334519       0.00000000  F        8       0.00000000       0.00000000       0.00000000
Fe       4.05879292       2.34334519       0.00000000  F        8       0.00000000       0.00000000       0.00000000
Fe       8.11758585       2.34334519       0.00000000  F        8       0.00000000       0.00000000       0.00000000
Fe      14.20577523       5.85836297       0.00000000  F        8       0.00000000       0.00000000       0.00000000
Fe       6.08818939       5.85836297       0.00000000  F        8       0.00000000       0.00000000       0.00000000
Fe      10.14698231       5.85836297       0.00000000  F        8       0.00000000       0.00000000       0.00000000
Fe      16.23517169       9.37338075       0.00000000  F        8       0.00000000       0.00000000       0.00000000
Fe       8.11758585       9.37338075       0.00000000  F        8       0.00000000       0.00000000       0.00000000
Fe      12.17637877       9.37338075       0.00000000  F        8       0.00000000       0.00000000       0.00000000
Fe       0.00000000       0.00000000       0.82849764  F        7       0.00000000       0.00000000       0.00000000
Fe       4.05879292       0.00000000       0.82849764  F        7       0.00000000       0.00000000       0.00000000
Fe       8.11758585       0.00000000       0.82849764  F        7       0.00000000       0.00000000       0.00000000
Fe       2.02939646       3.51501778       0.82849764  F        7       0.00000000       0.00000000       0.00000000
Fe       6.08818939       3.51501778       0.82849764  F        7       0.00000000       0.00000000       0.00000000
Fe      10.14698231       3.51501778       0.82849764  F        7       0.00000000       0.00000000       0.00000000
Fe       4.05879292       7.03003556       0.82849764  F        7       0.00000000       0.00000000       0.00000000
Fe       8.11758585       7.03003556       0.82849764  F        7       0.00000000       0.00000000       0.00000000
Fe      12.17637877       7.03003556       0.82849764  F        7       0.00000000       0.00000000       0.00000000
Fe       2.02939646       1.17167259       1.65699527  F        6       0.00000000       0.00000000       0.00000000
Fe       6.08818939       1.17167259       1.65699527  F        6       0.00000000       0.00000000       0.00000000
Fe      10.14698231       1.17167259       1.65699527  F        6       0.00000000       0.00000000       0.00000000
Fe       4.05879292       4.68669037       1.65699527  F        6       0.00000000       0.00000000       0.00000000
Fe       8.11758585       4.68669037       1.65699527  F        6       0.00000000       0.00000000       0.00000000
Fe      12.17637877       4.68669037       1.65699527  F        6       0.00000000       0.00000000       0.00000000
Fe       6.08818939       8.20170816       1.65699527  F        6       0.00000000       0.00000000       0.00000000
Fe      10.14698231       8.20170816       1.65699527  F        6       0.00000000       0.00000000       0.00000000
Fe      14.20577523       8.20170816       1.65699527  F        6       0.00000000       0.00000000       0.00000000
Fe      12.33092913       2.48966805       2.20163211  T        5       1.08333981       0.23896462      -0.57088135
Fe       3.91513529       2.49470968       2.21595996  T        5       0.26204169       0.86776462       1.20646184
Fe       8.12293972       2.37809573       2.13019215  T        5       0.66250410      -0.20427237       1.37449251
Fe      14.22638949       6.00265729       2.19685821  T        5       2.56751368      -1.33111384      -1.96352116
Fe       6.08546942       5.59310125       2.24156542  T        5      -0.94152415      -1.71968982       0.82707034
Fe      10.14781535       5.56708049       2.22483567  T        5       0.70937263      -4.93529114      -1.23660451
Fe      16.29338447       9.42673409       2.31874403  T        5       1.74694787      -0.12574965       1.12677106
Fe       8.09217866       9.29236623       2.24068023  T        5      -3.15347827       0.94275942       1.81028456
Fe      12.11024764       9.40417688       2.29727416  T        5      -2.72877859      -2.92723442      -1.54021132
Fe       0.16345737       0.23758102       3.06352381  T        4       0.70058033       0.36091323      -0.96521986
Fe       3.91471032       0.24258214       3.05500565  T        4       1.70523780       0.98053199      -2.01455478
Fe       8.11813729       0.16984289       2.99224230  T        4       0.06407737       0.21424041      -0.26463579
Fe      14.20076993       3.87266170       3.06641279  T        4      -0.63082604       2.37893262       3.38352745
Fe       6.10628918       3.13861444       3.14165290  T        4      -0.34780191      -1.84694396       1.01335796
Fe      10.10994282       3.19507244       3.14465518  T        4      -1.98812223       5.12611287       1.33069599
Fe       4.32883360       7.04635896       3.06747883  T        4      -1.79003592      -0.68634736      -0.50019696
Fe       8.09925412       6.87215984       3.04440535  T        4      -2.27519066      -2.26471391      -2.20352905
Fe      11.90385380       7.02401679       3.06188846  T        4       1.48749644      -3.47445838      -1.18975262
Fe       2.02623164       1.52814535       3.93474822  T        3      -0.38791651       2.07004226       0.60359420
Fe       6.05773681       0.83240508       3.98875560  T        3      -1.14577315      -0.20575393      -1.03853367
Fe      10.18347677       0.81997584       4.00425153  T        3       1.89537925      -1.74545042       0.88431270
Fe       4.26544260       4.69471181       3.94645917  T        3      -2.14782974       0.44630235      -0.07347259
Fe       8.15064125       4.69456142       3.89130438  T        3       4.09910607       1.82805589      -0.45440863
Fe      11.95426148       4.70065051       3.95629841  T        3       0.23958788       1.19562360       1.15090225
Fe       6.30696656       8.42915036       3.94666316  T        3       1.10457643       1.18892322       2.69465162
Fe       9.94589497       8.42551446       3.92815250  T        3       1.10407216       0.74441657       0.39298784
Fe      14.21808132       7.88243674       3.93352721  T        3       1.52965799       0.05919884       1.75936080
Fe      11.98442711       2.24233426       4.46645227  T        2       0.90939856      -3.39046519      -0.81422348
Fe       4.24719707       2.25089092       4.48360579  T        2      -1.35503669      -2.33211046       1.32786533
Fe       8.13249002       2.22936832       4.53254112  T        2       1.85214516       1.40728889       0.73674930
Fe      14.21901764       5.53939250       4.63275795  T        2       1.65107122      -2.36177870      -0.27842046
Fe       6.19736307       6.09561984       4.47547908  T        2      -1.32319865      -2.32069648       1.44859184
Fe      10.02199698       6.10550093       4.47612702  T        2      -0.64594240      -1.07996930       1.51561711
Fe      16.21484069       8.97162247       4.60591338  T        2       1.09533513       0.26880547       0.79248218
Fe       8.13821059       9.88923533       4.47828190  T        2       2.57614313       2.29894894       0.26844051
Fe      12.21351983       8.97647706       4.58054454  T        2       0.99432328       0.87554733      -2.37263735
Fe      17.91883606      10.28312765       5.19146735  T        1      -0.45789011      -1.24690864      -2.05719653
Fe      10.50011388      10.30761370       5.20258091  T        1       1.38857058       1.79433968      -0.69866975
Fe      14.21543104       9.96298422       5.06249530  T        1       1.20477026      -0.18893973       3.81561686
Fe       2.03468510       3.36929860       5.23005538  T        1       0.66137235      -0.18453274       2.66777526
Fe       6.22998973       3.98400556       5.26993068  T        1       0.18450112       3.06005050       3.01286333
Fe      10.00238614       3.94368676       5.22304709  T        1      -0.48711865      -1.93385102      -2.79399235
Fe      16.00862456       6.71659554       5.22468127  T        1       4.78087108       1.76644360       2.25824714
Fe       8.12971953       7.63976404       5.18052230  T        1       1.51647596      -1.08093363       0.26701178
Fe      12.44293767       6.71815128       5.22034117  T        1       0.21186131       1.96493415       1.70746608
N        7.49812685       3.21545308       6.31738076  T        0       0.28525829       0.06895879       0.23942955
N        8.78555168       3.24009362       6.30426778  T        0       1.19128015       0.81458131      -0.14108560
74
Lattice="12.176378772032349 0.0 0.0 6.088189386016174 10.545053342681582 0.0 0.0 0.0 20.0" Properties=species:S:1:pos:R:3:move_mask:L:1:tags:I:1:momenta:R:3 pbc="T T F"
Fe      12.17637877       2.34334519       0.00000000  F        8       0.00000000       0.00000000       0.00000000
Fe       4.05879292       2.34334519       0.00000000  F        8       0.00000000       0.00000000       0.00000000
Fe       8.11758585       2.34334519       0.00000000  F        8       0.00000000       0.00000000       0.00000000
Fe      14.20577523       5.85836297       0.00000000  F        8       0.00000000       0.00000000       0.00000000
Fe       6.08818939       5.85836297       0.00000000  F        8       0.00000000       0.00000000       0.00000000
Fe      10.14698231       5.85836297       0.00000000  F        8       0.00000000       0.00000000       0.00000000
Fe      16.23517169       9.37338075       0.00000000  F        8       0.00000000       0.00000000       0.00000000
Fe       8.11758585       9.37338075       0.00000000  F        8       0.00000000       0.00000000       0.00000000
Fe      12.17637877       9.37338075       0.00000000  F        8       0.00000000       0.00000000       0.00000000
Fe       0.00000000       0.00000000       0.82849764  F        7       0.00000000       0.00000000       0.00000000
Fe       4.05879292       0.00000000       0.82849764  F        7       0.00000000       0.00000000       0.00000000
Fe       8.11758585       0.00000000       0.82849764  F        7       0.00000000       0.00000000       0.00000000
Fe       2.02939646       3.51501778       0.82849764  F        7       0.00000000       0.00000000       0.00000000
Fe       6.08818939       3.51501778       0.82849764  F        7       0.00000000       0.00000000       0.00000000
Fe      10.14698231       3.51501778       0.82849764  F        7       0.00000000       0.00000000       0.00000000
Fe       4.05879292       7.03003556       0.82849764  F        7       0.00000000       0.00000000       0.00000000
Fe       8.11758585       7.03003556       0.82849764  F        7       0.00000000       0.00000000       0.00000000
Fe      12.17637877       7.03003556       0.82849764  F        7       0.00000000       0.00000000       0.00000000
Fe       2.02939646       1.17167259       1.65699527  F        6       0.00000000       0.00000000       0.00000000
Fe       6.08818939       1.17167259       1.65699527  F        6       0.00000000       0.00000000       0.00000000
Fe      10.14698231       1.17167259       1.65699527  F        6       0.00000000       0.00000000       0.00000000
Fe       4.05879292       4.68669037       1.65699527  F        6       0.00000000       0.00000000       0.00000000
Fe       8.11758585       4.68669037       1.65699527  F        6       0.00000000       0.00000000       0.00000000
Fe      12.17637877       4.68669037       1.65699527  F        6       0.00000000       0.00000000       0.00000000
Fe       6.08818939       8.20170816       1.65699527  F        6       0.00000000       0.00000000       0.00000000
Fe      10.14698231       8.20170816       1.65699527  F        6       0.00000000       0.00000000       0.00000000
Fe      14.20577523       8.20170816       1.65699527  F        6       0.00000000       0.00000000       0.00000000
Fe      12.33188989       2.48988148       2.20112633  T        5       1.09074976       0.24419427      -0.57358305
Fe       3.91536723       2.49548144       2.21703093  T        5       0.26272228       0.87889356       1.21712062
Fe       8.12352721       2.37791402       2.13141224  T        5       0.66688945      -0.20699643       1.38650671
Fe      14.22866871       6.00147768       2.19511531  T        5       2.59030242      -1.33805719      -1.98060746
Fe       6.08463384       5.59157474       2.24229977  T        5      -0.94933603      -1.73477280       0.83478122
Fe      10.14844528       5.56270316       2.22374093  T        5       0.71618201      -4.97001854      -1.24036147
Fe      16.29493502       9.42662218       2.31974384  T        5       1.76188361      -0.12752326       1.13570943
Fe       8.08938086       9.29320208       2.24228679  T        5      -3.17766636       0.94865024       1.82524169
Fe      12.10782611       9.40157920       2.29590747  T        5      -2.75097617      -2.95114911      -1.55253064
Fe       0.16407950       0.23790091       3.06266617  T        4       0.70732233       0.36292089      -0.97569018
Fe       3.91622280       0.24345160       3.05321820  T        4       1.71731136       0.98689461      -2.03026358
Fe       8.11819351       0.17003127       2.99201054  T        4       0.06305084       0.21180819      -0.25942505
Fe      14.20020883       3.87477024       3.06941249  T        4      -0.63910643       2.39220707       3.40417890
Fe       6.10598075       3.13697707       3.14255564  T        4      -0.35012343      -1.85810669       1.02991985
Fe      10.10818091       3.19961666       3.14583138  T        4      -1.99868472       5.15652000       1.33027964
Fe       4.32724590       7.04574995       3.06703587  T        4      -1.80275796      -0.69178671      -0.50205319
Fe       8.09723553       6.87015265       3.04245160  T        4      -2.29267990      -2.27712309      -2.21747012
Fe      11.90517391       7.02093196       3.06083434  T        4       1.49987182      -3.50649647      -1.19543945
Fe       2.02588819       1.52998235       3.93528349  T        3      -0.38918626       2.08695885       0.60757626
Fe       6.05672248       0.83222224       3.98783335  T        3      -1.14925160      -0.20800550      -1.04852001
Fe      10.18515609       0.81842739       4.00503520  T        3       1.90445218      -1.75852649       0.88894004
Fe       4.26353698       4.69510695       3.94639474  T        3      -2.16438631       0.44776877      -0.07221311
Fe       8.15427746       4.69618317       3.89090235  T        3       4.12920198       1.84179904      -0.45519296
Fe      11.95447581       4.70171224       3.95732072  T        3       0.24563287       1.20709806       1.16267100
Fe       6.30794889       8.43020309       3.94905359  T        3       1.11867053       1.19300931       2.71466660
Fe       9.94687412       8.42617385       3.92850027  T        3       1.11160020       0.74758091       0.39390180
Fe      14.21943877       7.88248883       3.93508836  T        3       1.54216652       0.05856628       1.77340636
Fe      11.98523385       2.23932580       4.46572924  T        2       0.91617645      -3.41738995      -0.82199686
Fe       4.24599417       2.24882087       4.48478512  T        2      -1.36711471      -2.35229591       1.34099755
Fe       8.13413357       2.23061832       4.53319795  T        2       1.86706682       1.42145579       0.74986430
Fe      14.22048354       5.53730096       4.63251396  T        2       1.66624317      -2.37065577      -0.27326132
Fe       6.19618816       6.09356125       4.47676443  T        2      -1.33565040      -2.33766087       1.46006007
Fe      10.02142388       6.10454524       4.47746993  T        2      -0.65093313      -1.08234397       1.52304470
Fe      16.21581144       8.97185993       4.60661729  T        2       1.10119598       0.26839154       0.80046704
Fe       8.14049854       9.89127549       4.47852043  T        2       2.60159273       2.31780258       0.27139764
Fe      12.21440350       8.97725347       4.57843793  T        2       1.00556240       0.88137176      -2.39468444
Fe      17.91843134      10.28202204       5.18964504  T        1      -0.45773975      -1.25490506      -2.06611051
Fe      10.50134615      10.30920659       5.20196084  T        1       1.39999294       1.81033204      -0.70451614
Fe      14.21650086       9.96281693       5.06587982  T        1       1.21625546      -0.18957347       3.84318013
Fe       2.03527260       3.36913485       5.23242477  T        1       0.66819053      -0.18605932       2.69435184
Fe       6.23015695       3.98672002       5.27260428  T        1       0.19430667       3.08248040       3.03730403
Fe      10.00195706       3.94197217       5.22057051  T        1      -0.48328829      -1.94588106      -2.80997397
Fe      16.01286850       6.71816291       5.22668494  T        1       4.82311831       1.78044632       2.27590704
Fe       8.13106650       7.63880408       5.18075609  T        1       1.53177848      -1.09148407       0.26164601
Fe      12.44312727       6.71989554       5.22185442  T        1       0.21740529       1.98233479       1.71666549
N        7.49925626       3.21569890       6.31821495  T        0       0.35770836       0.07073478       0.23369993
N        8.78962532       3.24296341       6.30377319  T        0       1.11819671       0.81387661      -0.13928704
74
Lattice="12.176378772032349 0.0 0.0 6.088189386016174 10.545053342681582 0.0 0.0 0.0 20.0" Properties=species:S:1:pos:R:3:move_mask:L:1:tags:I:1:momenta:R:3 pbc="T T F"
Fe      12.17637877       2.34334519       0.00000000  F        8       0.00000000       0.00000000       0.00000000
Fe       4.05879292       2.34334519       0.00000000  F        8       0.00000000       0.00000000       0.00000000
Fe       8.11758585       2.34334519       0.00000000  F        8       0.00000000       0.00000000       0.00000000
Fe      14.20577523       5.85836297       0.00000000  F        8       0.00000000       0.00000000       0.00000000
Fe       6.08818939       5.85836297       0.00000000  F        8       0.00000000       0.00000000       0.00000000
Fe      10.14698231       5.85836297       0.00000000  F        8       0.00000000       0.00000000       0.00000000
Fe      16.23517169       9.37338075       0.00000000  F        8       0.00000000       0.00000000       0.00000000
Fe       8.11758585       9.37338075       0.00000000  F        8       0.00000000       0.00000000       0.00000000
Fe      12.17637877       9.37338075       0.00000000  F        8       0.00000000       0.00000000       0.00000000
Fe       0.00000000       0.00000000       0.82849764  F        7       0.00000000       0.00000000       0.00000000
Fe       4.05879292       0.00000000       0.82849764  F        7       0.00000000       0.00000000       0.00000000
Fe       8.11758585       0.00000000       0.82849764  F        7       0.00000000       0.00000000       0.00000000
Fe       2.02939646       3.51501778       0.82849764  F        7       0.00000000       0.00000000       0.00000000
Fe       6.08818939       3.51501778       0.82849764  F        7       0.00000000       0.00000000       0.00000000
Fe      10.14698231       3.51501778       0.82849764  F        7       0.00000000       0.00000000       0.00000000
Fe       4.05879292       7.03003556       0.82849764  F        7       0.00000000       0.00000000       0.00000000
Fe       8.11758585       7.03003556       0.82849764  F        7       0.00000000       0.00000000       0.00000000
Fe      12.17637877       7.03003556       0.82849764  F        7       0.00000000       0.00000000       0.00000000
Fe       2.02939646       1.17167259       1.65699527  F        6       0.00000000       0.00000000       0.00000000
Fe       6.08818939       1.17167259       1.65699527  F        6       0.00000000       0.00000000       0.00000000
Fe      10.14698231       1.17167259       1.65699527  F        6       0.00000000       0.00000000       0.00000000
Fe       4.05879292       4.68669037       1.65699527  F        6       0.00000000       0.00000000       0.00000000
Fe       8.11758585       4.68669037       1.65699527  F        6       0.00000000       0.00000000       0.00000000
Fe      12.17637877       4.68669037       1.65699527  F        6       0.00000000       0.00000000       0.00000000
Fe       6.08818939       8.20170816       1.65699527  F        6       0.00000000       0.00000000       0.00000000
Fe      10.14698231       8.20170816       1.65699527  F        6       0.00000000       0.00000000       0.00000000
Fe      14.20577523       8.20170816       1.65699527  F        6       0.00000000       0.00000000       0.00000000
Fe      12.33285017       2.49009813       2.20062191  T        5       1.09005882       0.24797362      -0.57191094
Fe       3.91559800       2.49625760       2.21810356  T        5       0.26128033       0.88401137       1.21892262
Fe       8.12411425       2.37773117       2.13263408  T        5       0.66627141      -0.20834462       1.38838866
Fe      14.23095156       6.00030069       2.19336994  T        5       2.59429798      -1.33477696      -1.98329926
Fe       6.08379744       5.59004595       2.24303565  T        5      -0.95017452      -1.73730171       0.83650203
Fe      10.14907669       5.55832724       2.22265113  T        5       0.71785215      -4.96767091      -1.23432313
Fe      16.29648752       9.42650949       2.32074425  T        5       1.76395757      -0.12842746       1.13625548
Fe       8.08658212       9.29403700       2.24389487  T        5      -3.17837765       0.94743310       1.82680375
Fe      12.10540259       9.39897929       2.29453983  T        5      -2.75300220      -2.95342546      -1.55348757
Fe       0.16470311       0.23822020       3.06180541  T        4       0.70898903       0.36214840      -0.97929112
Fe       3.91773487       0.24432027       3.05142993  T        4       1.71658287       0.98581866      -2.03097707
Fe       8.11824834       0.17021593       2.99178540  T        4       0.06138936       0.20731309      -0.25152532
Fe      14.19964433       3.87687488       3.07240826  T        4      -0.64309514       2.38724761       3.39901239
Fe       6.10567254       3.13534193       3.14346680  T        4      -0.34979300      -1.85521912       1.03979233
Fe      10.10642272       3.20415416       3.14699808  T        4      -1.99402970       5.14783833       1.31870765
Fe       4.32565856       7.04514058       3.06659461  T        4      -1.80212321      -0.69212109      -0.49998038
Fe       8.09521622       6.86814935       3.04049992  T        4      -2.29326589      -2.27219448      -2.21475301
Fe      11.90649539       7.01784111       3.05978304  T        4       1.50132939      -3.51321028      -1.19192621
Fe       2.02554621       1.53182092       3.93581829  T        3      -0.38738808       2.08853689       0.60689923
Fe       6.05571273       0.83203874       3.98690893  T        3      -1.14364640      -0.20874699      -1.05097311
Fe      10.18683091       0.81687871       4.00581714  T        3       1.89882637      -1.75854713       0.88678264
Fe       4.26163066       4.69550042       3.94633199  T        3      -2.16489618       0.44570000      -0.07018085
Fe       8.15791364       4.69780521       3.89050269  T        3       4.12860670       1.84191578      -0.45232305
Fe      11.95469409       4.70277647       3.95834612  T        3       0.25030839       1.20990702       1.16622326
Fe       6.30893677       8.43125150       3.95144426  T        3       1.12515476       1.18768372       2.71464031
Fe       9.94785273       8.42683111       3.92884624  T        3       1.11084647       0.74495407       0.39175777
Fe      14.22079740       7.88253988       3.93665055  T        3       1.54336610       0.05726956       1.77443776
Fe      11.98604069       2.23631552       4.46500456  T        2       0.91616594      -3.41906524      -0.82387213
Fe       4.24478929       2.24674803       4.48596757  T        2      -1.36929629      -2.35529438       1.34452689
Fe       8.13577832       2.23187180       4.53386178  T        2       1.86824764       1.42533408       0.75793655
Fe      14.22195225       5.53521727       4.63227668  T        2       1.66935317      -2.36098195      -0.26518587
Fe       6.19501071       6.09150273       4.47805056  T        2      -1.33854057      -2.33727416       1.46081378
Fe      10.02085055       6.10359470       4.47880943  T        2      -0.65108225      -1.07603632       1.51882627
Fe      16.21678013       8.97209517       4.60732317  T        2       1.09855708       0.26572272       0.80267267
Fe       8.14279254       9.89331747       4.47875989  T        2       2.60847489       2.31970042       0.27246565
Fe      12.21529084       8.97802934       4.57632700  T        2       1.00983569       0.88064021      -2.39957096
Fe      17.91802988      10.28091750       5.18782850  T        1      -0.45375495      -1.25346899      -2.05893261
Fe      10.50257956      10.31080208       5.20134011  T        1       1.40118241       1.81315814      -0.70518869
Fe      14.21757313       9.96265034       5.06926395  T        1       1.21902606      -0.18870043       3.84226268
Fe       2.03586192       3.36897091       5.23480070  T        1       0.67027535      -0.18632035       2.70185575
Fe       6.23033194       3.98943446       5.27528002  T        1       0.20346453       3.08207895       3.03947110
Fe      10.00153497       3.94025965       5.21809814  T        1      -0.47472763      -1.94310187      -2.80457735
Fe      16.01711909       6.71973128       5.22868962  T        1       4.83047416       1.78145027       2.27683156
Fe       8.13241732       7.63784171       5.18098312  T        1       1.53618740      -1.09419007       0.25360419
Fe      12.44332057       6.72164259       5.22336458  T        1       0.22176710       1.98545566       1.71277872
N        7.50063862       3.21594977       6.31902176  T        0       0.43100811       0.07233993       0.22559621
N        8.79340347       3.24580852       6.30328973  T        0       1.03195171       0.80641115      -0.13574078
74
Lattice="12.176378772032349 0.0 0.0 6.088189386016174 10.545053342681582 0.0 0.0 0.0 20.0" Properties=species:S:1:pos:R:3:move_mask:L:1:tags:I:1:momenta:R:3 pbc="T T F"
Fe      12.17637877       2.34334519       0.00000000  F        8       0.00000000       0.00000000       0.00000000
Fe       4.05879292       2.34334519       0.00000000  F        8       0.00000000       0.00000000       0.00000000
Fe       8.11758585       2.34334519       0.00000000  F        8       0.00000000       0.00000000       0.00000000
Fe      14.20577523       5.85836297       0.00000000  F        8       0.00000000       0.00000000       0.00000000
Fe       6.08818939       5.85836297       0.00000000  F        8       0.00000000       0.00000000       0.00000000
Fe      10.14698231       5.85836297       0.00000000  F        8       0.00000000       0.00000000       0.00000000
Fe      16.23517169       9.37338075       0.00000000  F        8       0.00000000       0.00000000       0.00000000
Fe       8.11758585       9.37338075       0.00000000  F        8       0.00000000       0.00000000       0.00000000
Fe      12.17637877       9.37338075       0.00000000  F        8       0.00000000       0.00000000       0.00000000
Fe       0.00000000       0.00000000       0.82849764  F        7       0.00000000       0.00000000       0.00000000
Fe       4.05879292       0.00000000       0.82849764  F        7       0.00000000       0.00000000       0.00000000
Fe       8.11758585       0.00000000       0.82849764  F        7       0.00000000       0.00000000       0.00000000
Fe       2.02939646       3.51501778       0.82849764  F        7       0.00000000       0.00000000       0.00000000
Fe       6.08818939       3.51501778       0.82849764  F        7       0.00000000       0.00000000       0.00000000
Fe      10.14698231       3.51501778       0.82849764  F        7       0.00000000       0.00000000       0.00000000
Fe       4.05879292       7.03003556       0.82849764  F        7       0.00000000       0.00000000       0.00000000
Fe       8.11758585       7.03003556       0.82849764  F        7       0.00000000       0.00000000       0.00000000
Fe      12.17637877       7.03003556       0.82849764  F        7       0.00000000       0.00000000       0.00000000
Fe       2.02939646       1.17167259       1.65699527  F        6       0.00000000       0.00000000       0.00000000
Fe       6.08818939       1.17167259       1.65699527  F        6       0.00000000       0.00000000       0.00000000
Fe      10.14698231       1.17167259       1.65699527  F        6       0.00000000       0.00000000       0.00000000
Fe       4.05879292       4.68669037       1.65699527  F        6       0.00000000       0.00000000       0.00000000
Fe       8.11758585       4.68669037       1.65699527  F        6       0.00000000       0.00000000       0.00000000
Fe      12.17637877       4.68669037       1.65699527  F        6       0.00000000       0.00000000       0.00000000
Fe       6.08818939       8.20170816       1.65699527  F        6       0.00000000       0.00000000       0.00000000
Fe      10.14698231       8.20170816       1.65699527  F        6       0.00000000       0.00000000       0.00000000
Fe      14.20577523       8.20170816       1.65699527  F        6       0.00000000       0.00000000       0.00000000
Fe      12.33380382       2.49031688       2.20012217  T        5       1.08238577       0.25050019      -0.56647454
Fe       3.91582599       2.49703359       2.21917112  T        5       0.25800540       0.88394424       1.21308215
Fe       8.12469705       2.37754821       2.13384998  T        5       0.66133647      -0.20850972       1.38152410
Fe      14.23322379       5.99913407       2.19163302  T        5       2.58207960      -1.32267938      -1.97358132
Fe       6.08296552       5.58852438       2.24376850  T        5      -0.94498977      -1.72900951       0.83305869
Fe      10.14970569       5.55398089       2.22157370  T        5       0.71508913      -4.93332066      -1.21983573
Fe      16.29803219       9.42639669       2.32173888  T        5       1.75493465      -0.12858331       1.12955380
Fe       8.08380025       9.29486559       2.24549430  T        5      -3.15883100       0.94008979       1.81680487
Fe      12.10299238       9.39639356       2.29317985  T        5      -2.73763163      -2.93703874      -1.54465179
Fe       0.16532435       0.23853677       3.06094673  T        4       0.70627702       0.35897206      -0.97697019
Fe       3.91923679       0.24518250       3.04965220  T        4       1.70480498       0.97831775      -2.01874926
Fe       8.11830130       0.17039527       2.99156891  T        4       0.05917912       0.20103111      -0.24131271
Fe      14.19907968       3.87896178       3.07538050  T        4      -0.64339858       2.36653743       3.37155495
Fe       6.10536658       3.13371967       3.14438131  T        4      -0.34717299      -1.84020842       1.04388435
Fe      10.10467978       3.20865526       3.14814677  T        4      -1.97625420       5.10542329       1.29745991
Fe       4.32408172       7.04453472       3.06615801  T        4      -1.78998365      -0.68804997      -0.49451654
Fe       8.09320901       6.86616311       3.03856293  T        4      -2.27927672      -2.25230665      -2.19767706
Fe      11.90780995       7.01476345       3.05874155  T        4       1.49338168      -3.49807461      -1.18047758
Fe       2.02520801       1.53364942       3.93634908  T        3      -0.38294001       2.07687962       0.60218961
Fe       6.05471446       0.83185572       3.98598805  T        3      -1.13019498      -0.20817336      -1.04692371
Fe      10.18849006       0.81533972       4.00659222  T        3       1.88050479      -1.74729451       0.87877642
Fe       4.25973584       4.69588952       3.94627152  T        3      -2.15153771       0.44057265      -0.06746948
Fe       8.16152649       4.69941721       3.89010816  T        3       4.10151495       1.83028669      -0.44630989
Fe      11.95491530       4.70383660       3.95936838  T        3       0.25379526       1.20523475       1.16270272
Fe       6.30992444       8.43228843       3.95381997  T        3       1.12508780       1.17422528       2.69733630
Fe       9.94882455       8.42748184       3.92918812  T        3       1.10295476       0.73733571       0.38698840
Fe      14.22214863       7.88258938       3.93820392  T        3       1.53480721       0.05538485       1.76424723
Fe      11.98684246       2.23332259       4.46428269  T        2       0.91030069      -3.39893516      -0.82065085
Fe       4.24358995       2.24468543       4.48714585  T        2      -1.36294754      -2.34345749       1.33977462
Fe       8.13741385       2.23312092       4.53452874  T        2       1.85756601       1.42027588       0.76153456
Fe      14.22341460       5.53315553       4.63204834  T        2       1.66204780      -2.33529144      -0.25456573
Fe       6.19383795       6.08945745       4.47932934  T        2      -1.33319265      -2.32191621       1.45233263
Fe      10.02028070       6.10265593       4.48013669  T        2      -0.64704685      -1.06222154       1.50458161
Fe      16.21774029       8.97232648       4.60802663  T        2       1.08856586       0.26109856       0.79988446
Fe       8.14507852       9.89534843       4.47899883  T        2       2.59934593       2.30698182       0.27190851
Fe      12.21617657       8.97879971       4.57422475  T        2       1.00811117       0.87425963      -2.38967000
Fe      17.91763463      10.27982119       5.18602995  T        1      -0.44643873      -1.24389038      -2.03784884
Fe      10.50380636      10.31239015       5.20072266  T        1       1.39354463       1.80461805      -0.70139155
Fe      14.21864123       9.96248561       5.07262609  T        1       1.21428549      -0.18652943       3.81679650
Fe       2.03644948       3.36880771       5.23716870  T        1       0.66827933      -0.18550444       2.69292972
Fe       6.23051419       3.99213155       5.27794100  T        1       0.21200333       3.06198943       3.02241408
Fe      10.00112353       3.93856046       5.21564621  T        1      -0.46198429      -1.92752706      -2.78071239
Fe      16.02134987       6.72129079       5.23068261  T        1       4.80776869       1.77126013       2.26332928
Fe       8.13376374       7.63688289       5.18120137  T        1       1.53120381      -1.09012894       0.24326580
Fe      12.44351665       6.72338161       5.22486173  T        1       0.22510375       1.97627849       1.69760601
N        7.50227344       3.21620530       6.31979418  T        0       0.50378716       0.07383421       0.21553609
N        8.79684927       3.24860851       6.30282297  T        0       0.93559708       0.79313186      -0.13058468
74
Lattice="12.176378772032349 0.0 0.0 6.088189386016174 10.545053342681582 0.0 0.0 0.0 20.0" Properties=species:S:1:pos:R:3:move_mask:L:1:tags:I:1:momenta:R:3 pbc="T T F"
Fe      12.17637877       2.34334519       0.00000000  F        8       0.00000000       0.00000000       0.00000000
Fe       4.05879292       2.34334519       0.00000000  F        8       0.00000000       0.00000000       0.00000000
Fe       8.11758585       2.34334519       0.00000000  F        8       0.00000000       0.00000000       0.00000000
Fe      14.20577523       5.85836297       0.00000000  F        8       0.00000000       0.00000000       0.00000000
Fe       6.08818939       5.85836297       0.00000000  F        8       0.00000000       0.00000000       0.00000000
Fe      10.14698231       5.85836297       0.00000000  F        8       0.00000000       0.00000000       0.00000000
Fe      16.23517169       9.37338075       0.00000000  F        8       0.00000000       0.00000000       0.00000000
Fe       8.11758585       9.37338075       0.00000000  F        8       0.00000000       0.00000000       0.00000000
Fe      12.17637877       9.37338075       0.00000000  F        8       0.00000000       0.00000000       0.00000000
Fe       0.00000000       0.00000000       0.82849764  F        7       0.00000000       0.00000000       0.00000000
Fe       4.05879292       0.00000000       0.82849764  F        7       0.00000000       0.00000000       0.00000000
Fe       8.11758585       0.00000000       0.82849764  F        7       0.00000000       0.00000000       0.00000000
Fe       2.02939646       3.51501778       0.82849764  F        7       0.00000000       0.00000000       0.00000000
Fe       6.08818939       3.51501778       0.82849764  F        7       0.00000000       0.00000000       0.00000000
Fe      10.14698231       3.51501778       0.82849764  F        7       0.00000000       0.00000000       0.00000000
Fe       4.05879292       7.03003556       0.82849764  F        7       0.00000000       0.00000000       0.00000000
Fe       8.11758585       7.03003556       0.82849764  F        7       0.00000000       0.00000000       0.00000000
Fe      12.17637877       7.03003556       0.82849764  F        7       0.00000000       0.00000000       0.00000000
Fe       2.02939646       1.17167259       1.65699527  F        6       0.00000000       0.00000000       0.00000000
Fe       6.08818939       1.17167259       1.65699527  F        6       0.00000000       0.00000000       0.00000000
Fe      10.14698231       1.17167259       1.65699527  F        6       0.00000000       0.00000000       0.00000000
Fe       4.05879292       4.68669037       1.65699527  F        6       0.00000000       0.00000000       0.00000000
Fe       8.11758585       4.68669037       1.65699527  F        6       0.00000000       0.00000000       0.00000000
Fe      12.17637877       4.68669037       1.65699527  F        6       0.00000000       0.00000000       0.00000000
Fe       6.08818939       8.20170816       1.65699527  F        6       0.00000000       0.00000000       0.00000000
Fe      10.14698231       8.20170816       1.65699527  F        6       0.00000000       0.00000000       0.00000000
Fe      14.20577523       8.20170816       1.65699527  F        6       0.00000000       0.00000000       0.00000000
Fe      12.33476299       2.49054082       2.19962082  T        5       1.08852075       0.25653101      -0.56817553
Fe       3.91605395       2.49781973       2.22024736  T        5       0.25787434       0.89559297       1.22286571
Fe       8.12528298       2.37736268       2.13507555  T        5       0.66479043      -0.21147607       1.39241321
Fe      14.23551469       5.99796321       2.18988217  T        5       2.60316388      -1.32720600      -1.98931338
Fe       6.08212743       5.58699039       2.24450785  T        5      -0.95190974      -1.74305900       0.84042020
Fe      10.15034042       5.54960893       2.22049540  T        5       0.72159911      -4.96170364      -1.22040655
Fe      16.29958889       9.42628226       2.32274043  T        5       1.76848057      -0.13045027       1.13728138
Fe       8.08099974       9.29569836       2.24710558  T        5      -3.17966069       0.94468635       1.83010431
Fe      12.10056457       9.39378887       2.29181008  T        5      -2.75740121      -2.95835080      -1.55566988
Fe       0.16595127       0.23885458       3.06007888  T        4       0.71272282       0.36029211      -0.98743820
Fe       3.92074765       0.24604918       3.04786233  T        4       1.71471553       0.98318663      -2.03232835
Fe       8.11835292       0.17057119       2.99135894  T        4       0.05757951       0.19688626      -0.23353636
Fe      14.19850730       3.88105710       3.07836658  T        4      -0.65232240       2.37556665       3.38660810
Fe       6.10505901       3.13208985       3.14531159  T        4      -0.34893515      -1.84844512       1.06209422
Fe      10.10293022       3.21317662       3.14929099  T        4      -1.98336616       5.12741143       1.29158287
Fe       4.32249525       7.04392463       3.06572068  T        4      -1.80072336      -0.69277959      -0.49518534
Fe       8.09118822       6.86416901       3.03661612  T        4      -2.29446902      -2.26076741      -2.20848179
Fe      11.90913454       7.01165920       3.05769687  T        4       1.50468595      -3.52815438      -1.18380837
Fe       2.02486946       1.53549125       3.93688250  T        3      -0.38321839       2.09184300       0.60501965
Fe       6.05371542       0.83167085       3.98505878  T        3      -1.13066882      -0.21026416      -1.05643451
Fe      10.19015419       0.81379084       4.00737014  T        3       1.88566232      -1.75830947       0.88182546
Fe       4.25782840       4.69627901       3.94621276  T        3      -2.16559638       0.44086814      -0.06539669
Fe       8.16516196       4.70103975       3.88971396  T        3       4.12666927       1.84205932      -0.44577258
Fe      11.95514261       4.70490639       3.96040088  T        3       0.26089400       1.21617546       1.17439118
Fe       6.31092506       8.43332663       3.95621107  T        3       1.13998694       1.17524896       2.71454303
Fe       9.94980191       8.42813415       3.92953014  T        3       1.10911487       0.73892294       0.38705544
Fe      14.22350976       7.88263776       3.93976838  T        3       1.54593947       0.05399456       1.77669493
Fe      11.98764940       2.23030882       4.46355428  T        2       0.91605946      -3.42222656      -0.82805391
Fe       4.24238065       2.24260660       4.48833526  T        2      -1.37421000      -2.36173681       1.35241950
Fe       8.13906107       2.23438175       4.53520759  T        2       1.87066629       1.43345582       0.77508422
Fe      14.22488947       5.53109028       4.63182680  T        2       1.67618835      -2.33854998      -0.24638907
Fe       6.19265465       6.08739937       4.48061716  T        2      -1.34516580      -2.33616920       1.46249482
Fe      10.01970707       6.10171751       4.48146837  T        2      -0.65124494      -1.06137236       1.50926896
Fe      16.21870388       8.97255659       4.60873675  T        2       1.09215213       0.25956026       0.80743071
Fe       8.14738619       9.89739444       4.47924041  T        2       2.62401800       2.32391994       0.27493352
Fe      12.21707240       8.97957436       4.57210390  T        2       1.01968561       0.87902532      -2.41079329
Fe      17.91724092      10.27871926       5.18422715  T        1      -0.44440364      -1.25006572      -2.04207554
Fe      10.50504228      10.31399125       5.20010059  T        1       1.40381576       1.81931851      -0.70658048
Fe      14.21971905       9.96232070       5.07600911  T        1       1.22531235      -0.18665881       3.84008401
Fe       2.03704293       3.36864308       5.23955972  T        1       0.67500526      -0.18717018       2.71917070
Fe       6.23070660       3.99484570       5.28062132  T        1       0.22381855       3.08100943       3.04411949
Fe      10.00071853       3.93685327       5.21318398  T        1      -0.45400071      -1.93620696      -2.79181990
Fe      16.02561552       6.72286151       5.23268944  T        1       4.84722646       1.78387432       2.27884556
Fe       8.13512331       7.63591520       5.18141303  T        1       1.54616593      -1.10019713       0.23541776
Fe      12.44371838       6.72513513       5.22636464  T        1       0.23167105       1.99270882       1.70379653
N        7.50418821       3.21646999       6.32054039  T        0       0.58403771       0.07661499       0.20784522
N        8.79999553       3.25139679       6.30236965  T        0       0.84897208       0.78939519      -0.12633851
74
Lattice="12.176378772032349 0.0 0.0 6.088189386016174 10.545053342681582 0.0 0.0 0.0 20.0" Properties=species:S:1:pos:R:3:move_mask:L:1:tags:I:1:momenta:R:3 pbc="T T F"
Fe      12.17637877       2.34334519       0.00000000  F        8       0.00000000       0.00000000       0.00000000
Fe       4.05879292       2.34334519       0.00000000  F        8       0.00000000       0.00000000       0.00000000
Fe       8.11758585       2.34334519       0.00000000  F        8       0.00000000       0.00000000       0.00000000
Fe      14.20577523       5.85836297       0.00000000  F        8       0.00000000       0.00000000       0.00000000
Fe       6.08818939       5.85836297       0.00000000  F        8       0.00000000       0.00000000       0.00000000
Fe      10.14698231       5.85836297       0.00000000  F        8       0.00000000       0.00000000       0.00000000
Fe      16.23517169       9.37338075       0.00000000  F        8       0.00000000       0.00000000       0.00000000
Fe       8.11758585       9.37338075       0.00000000  F        8       0.00000000       0.00000000       0.00000000
Fe      12.17637877       9.37338075       0.00000000  F        8       0.00000000       0.00000000       0.00000000
Fe       0.00000000       0.00000000       0.82849764  F        7       0.00000000       0.00000000       0.00000000
Fe       4.05879292       0.00000000       0.82849764  F        7       0.00000000       0.00000000       0.00000000
Fe       8.11758585       0.00000000       0.82849764  F        7       0.00000000       0.00000000       0.00000000
Fe       2.02939646       3.51501778       0.82849764  F        7       0.00000000       0.00000000       0.00000000
Fe       6.08818939       3.51501778       0.82849764  F        7       0.00000000       0.00000000       0.00000000
Fe      10.14698231       3.51501778       0.82849764  F        7       0.00000000       0.00000000       0.00000000
Fe       4.05879292       7.03003556       0.82849764  F        7       0.00000000       0.00000000       0.00000000
Fe       8.11758585       7.03003556       0.82849764  F        7       0.00000000       0.00000000       0.00000000
Fe      12.17637877       7.03003556       0.82849764  F        7       0.00000000       0.00000000       0.00000000
Fe       2.02939646       1.17167259       1.65699527  F        6       0.00000000       0.00000000       0.00000000
Fe       6.08818939       1.17167259       1.65699527  F        6       0.00000000       0.00000000       0.00000000
Fe      10.14698231       1.17167259       1.65699527  F        6       0.00000000       0.00000000       0.00000000
Fe       4.05879292       4.68669037       1.65699527  F        6       0.00000000       0.00000000       0.00000000
Fe       8.11758585       4.68669037       1.65699527  F        6       0.00000000       0.00000000       0.00000000
Fe      12.17637877       4.68669037       1.65699527  F        6       0.00000000       0.00000000       0.00000000
Fe       6.08818939       8.20170816       1.65699527  F        6       0.00000000       0.00000000       0.00000000
Fe      10.14698231       8.20170816       1.65699527  F        6       0.00000000       0.00000000       0.00000000
Fe      14.20577523       8.20170816       1.65699527  F        6       0.00000000       0.00000000       0.00000000
Fe      12.33572586       2.49076984       2.19911892  T        5       1.09258423       0.26244033      -0.56868996
Fe       3.91628132       2.49861497       2.22133038  T        5       0.25708822       0.90606262       1.23050927
Fe       8.12587089       2.37717480       2.13630861  T        5       0.66692852      -0.21420406       1.40082304
Fe      14.23782029       5.99679057       2.18812042  T        5       2.61973947      -1.32892216      -2.00159771
Fe       6.08128470       5.58544660       2.24525247  T        5      -0.95708460      -1.75413361       0.84639287
Fe      10.15097984       5.54521983       2.21941879  T        5       0.72691834      -4.98043706      -1.21807513
Fe      16.30115486       9.42616635       2.32374702  T        5       1.77888996      -0.13215784       1.14287898
Fe       8.07818581       9.29653366       2.24872578  T        5      -3.19455477       0.94742447       1.84008108
Fe      12.09812353       9.39116989       2.29043295  T        5      -2.77219977      -2.97432965      -1.56391010
Fe       0.16658283       0.23917295       3.05920317  T        4       0.71799142       0.36083148      -0.99641865
Fe       3.92226453       0.24691855       3.04606365  T        4       1.72130419       0.98606203      -2.04212122
Fe       8.11840297       0.17074292       2.99115655  T        4       0.05570157       0.19187323      -0.22456384
Fe      14.19792785       3.88315641       3.08136035  T        4      -0.66049427       2.37955454       3.39466300
Fe       6.10475045       3.13045580       3.14625669  T        4      -0.34998578      -1.85290889       1.07923515
Fe      10.10117768       3.21770893       3.15042737  T        4      -1.98632972       5.13882497       1.28187211
Fe       4.32090212       7.04331145       3.06528364  T        4      -1.80809916      -0.69622556      -0.49470915
Fe       8.08915758       6.86217119       3.03466333  T        4      -2.30543477      -2.26448516      -2.21491759
Fe      11.91046683       7.00853365       3.05665126  T        4       1.51337126      -3.55224170      -1.18456602
Fe       2.02453135       1.53734306       3.93741739  T        3      -0.38258374       2.10299580       0.60654852
Fe       6.05271800       0.83148445       3.98412266  T        3      -1.12841796      -0.21196805      -1.06418265
Fe      10.19181964       0.81223501       4.00814929  T        3       1.88664376      -1.76596454       0.88301965
Fe       4.25591197       4.69666797       3.94615604  T        3      -2.17551296       0.44009334      -0.06293861
Fe       8.16881311       4.70266981       3.88932104  T        3       4.14390705       1.85040807      -0.44414099
Fe      11.95537597       4.70598405       3.96144205  T        3       0.26793518       1.22508646       1.18429551
Fe       6.31193736       8.43436361       3.95861314  T        3       1.15344713       1.17346279       2.72671344
Fe       9.95078295       8.42878658       3.92987155  T        3       1.11314897       0.73887521       0.38626199
Fe      14.22487835       7.88268472       3.94134110  T        3       1.55427255       0.05226771       1.78592818
Fe      11.98845998       2.22727984       4.46282056  T        2       0.92009597      -3.43911216      -0.83406304
Fe       4.24116346       2.24051523       4.48953387  T        2      -1.38313186      -2.37580734       1.36286629
Fe       8.14071695       2.23565203       4.53589733  T        2       1.88032235       1.44405128       0.78742601
Fe      14.22637431       5.52902627       4.63161328  T        2       1.68743818      -2.33638358      -0.23680332
Fe       6.19146274       6.08533239       4.48191172  T        2      -1.35495313      -2.34597918       1.47002071
Fe      10.01913077       6.10078182       4.48280166  T        2      -0.65418722      -1.05782237       1.51078817
Fe      16.21966875       8.97278480       4.60945234  T        2       1.09331111       0.25723531       0.81361173
Fe       8.14971184       9.89945186       4.47948429  T        2       2.64446806       2.33672036       0.27757030
Fe      12.21797707       8.98035183       4.56996792  T        2       1.02983607       0.88211044      -2.42796770
Fe      17.91684993      10.27761391       5.18242419  T        1      -0.44103653      -1.25373249      -2.04162725
Fe      10.50628513      10.31560259       5.19947503  T        1       1.41157665       1.83083204      -0.71047668
Fe      14.22080481       9.96215602       5.07940667  T        1       1.23434118      -0.18634739       3.85616009
Fe       2.03764136       3.36847722       5.24197005  T        1       0.68068246      -0.18860499       2.74119333
Fe       6.23090940       3.99757181       5.28331611  T        1       0.23586347       3.09424286       3.06028497
Fe      10.00032188       3.93514163       5.21071660  T        1      -0.44383798      -1.94084644      -2.79702581
Fe      16.02990880       6.72444065       5.23470646  T        1       4.87847150       1.79334235       2.29021020
Fe       8.13649386       7.63494023       5.18161705  T        1       1.55868090      -1.10844894       0.22639563
Fe      12.44392572       6.72690021       5.22787018  T        1       0.23821906       2.00581759       1.70641227
N        7.50638500       3.21674466       6.32125739  T        0       0.66451805       0.07962533       0.19934855
N        8.80282593       3.25416576       6.30193356  T        0       0.75806740       0.78350930      -0.12100118
74
Lattice="12.176378772032349 0.0 0.0 6.088189386016174 10.545053342681582 0.0 0.0 0.0 20.0" Properties=species:S:1:pos:R:3:move_mask:L:1:tags:I:1:momenta:R:3 pbc="T T F"
Fe      12.17637877       2.34334519       0.00000000  F        8       0.00000000       0.00000000       0.00000000
Fe       4.05879292       2.34334519       0.00000000  F        8       0.00000000       0.00000000       0.00000000
Fe       8.11758585       2.34334519       0.00000000  F        8       0.00000000       0.00000000       0.00000000
Fe      14.20577523       5.85836297       0.00000000  F        8       0.00000000       0.00000000       0.00000000
Fe       6.08818939       5.85836297       0.00000000  F        8       0.00000000       0.00000000       0.00000000
Fe      10.14698231       5.85836297       0.00000000  F        8       0.00000000       0.00000000       0.00000000
Fe      16.23517169       9.37338075       0.00000000  F        8       0.00000000       0.00000000       0.00000000
Fe       8.11758585       9.37338075       0.00000000  F        8       0.00000000       0.00000000       0.00000000
Fe      12.17637877       9.37338075       0.00000000  F        8       0.00000000       0.00000000       0.00000000
Fe       0.00000000       0.00000000       0.82849764  F        7       0.00000000       0.00000000       0.00000000
Fe       4.05879292       0.00000000       0.82849764  F        7       0.00000000       0.00000000       0.00000000
Fe       8.11758585       0.00000000       0.82849764  F        7       0.00000000       0.00000000       0.00000000
Fe       2.02939646       3.51501778       0.82849764  F        7       0.00000000       0.00000000       0.00000000
Fe       6.08818939       3.51501778       0.82849764  F        7       0.00000000       0.00000000       0.00000000
Fe      10.14698231       3.51501778       0.82849764  F        7       0.00000000       0.00000000       0.00000000
Fe       4.05879292       7.03003556       0.82849764  F        7       0.00000000       0.00000000       0.00000000
Fe       8.11758585       7.03003556       0.82849764  F        7       0.00000000       0.00000000       0.00000000
Fe      12.17637877       7.03003556       0.82849764  F        7       0.00000000       0.00000000       0.00000000
Fe       2.02939646       1.17167259       1.65699527  F        6       0.00000000       0.00000000       0.00000000
Fe       6.08818939       1.17167259       1.65699527  F        6       0.00000000       0.00000000       0.00000000
Fe      10.14698231       1.17167259       1.65699527  F        6       0.00000000       0.00000000       0.00000000
Fe       4.05879292       4.68669037       1.65699527  F        6       0.00000000       0.00000000       0.00000000
Fe       8.11758585       4.68669037       1.65699527  F        6       0.00000000       0.00000000       0.00000000
Fe      12.17637877       4.68669037       1.65699527  F        6       0.00000000       0.00000000       0.00000000
Fe       6.08818939       8.20170816       1.65699527  F        6       0.00000000       0.00000000       0.00000000
Fe      10.14698231       8.20170816       1.65699527  F        6       0.00000000       0.00000000       0.00000000
Fe      14.20577523       8.20170816       1.65699527  F        6       0.00000000       0.00000000       0.00000000
Fe      12.33669203       2.49100417       2.19861676  T        5       1.09619126       0.26860111      -0.56886660
Fe       3.91650786       2.49941945       2.22241991  T        5       0.25603502       0.91667258       1.23782317
Fe       8.12646049       2.37698449       2.13754880  T        5       0.66873802      -0.21700517       1.40881626
Fe      14.24014003       5.99561690       2.18634821  T        5       2.63565739      -1.32980382      -2.01338528
Fe       6.08043762       5.58389334       2.24600222  T        5      -0.96192016      -1.76481591       0.85221945
Fe      10.15162385       5.54081561       2.21834480  T        5       0.73211345      -4.99686693      -1.21466522
Fe      16.30272965       9.42604892       2.32475827  T        5       1.78878209      -0.13390128       1.14802872
Fe       8.07535952       9.29737110       2.25035437  T        5      -3.20822347       0.94970776       1.84944478
Fe      12.09567005       9.38853747       2.28904888  T        5      -2.78611651      -2.98936257      -1.57168186
Fe       0.16721893       0.23949166       3.05831963  T        4       0.72313633       0.36112256      -1.00537175
Fe       3.92378674       0.24779014       3.04425682  T        4       1.72711135       0.98839964      -2.05113947
Fe       8.11845127       0.17090996       2.99096246  T        4       0.05363396       0.18629260      -0.21476304
Fe      14.19734115       3.88525837       3.08436010  T        4      -0.66888411       2.38201730       3.40074732
Fe       6.10444108       3.12881841       3.14721705  T        4      -0.35084438      -1.85634555       1.09685812
Fe      10.09942321       3.22224958       3.15155423  T        4      -1.98809519       5.14727732       1.27023512
Fe       4.31930292       7.04269540       3.06484724  T        4      -1.81479272      -0.69941494      -0.49382605
Fe       8.08711781       6.86017090       3.03270552  T        4      -2.31558049      -2.26681781      -2.22027282
Fe      11.91180650       7.00538747       3.05560543  T        4       1.52167273      -3.57555412      -1.18451430
Fe       2.02419398       1.53920424       3.93795340  T        3      -0.38160615       2.11343978       0.60767421
Fe       6.05172311       0.83129660       3.98317989  T        3      -1.12512286      -0.21358781      -1.07172731
Fe      10.19348520       0.81067290       4.00892918  T        3       1.88624684      -1.77286029       0.88367357
Fe       4.25398737       4.69705603       3.94610163  T        3      -2.18448069       0.43889948      -0.06018858
Fe       8.17247833       4.70430678       3.88892979  T        3       4.15933418       1.85807466      -0.44209208
Fe      11.95561567       4.70706937       3.96249184  T        3       0.27528883       1.23375895       1.19415951
Fe       6.31296155       8.43539846       3.96102528  T        3       1.16715471       1.17061484       2.73787611
Fe       9.95176725       8.42943868       3.93021211  T        3       1.11670713       0.73829743       0.38518972
Fe      14.22625394       7.88273004       3.94292157  T        3       1.56209451       0.05028617       1.79458262
Fe      11.98927389       2.22423682       4.46208168  T        2       0.92377017      -3.45465435      -0.83989349
Fe       4.23993863       2.23841194       4.49074150  T        2      -1.39175201      -2.38916508       1.37311967
Fe       8.14238091       2.23693133       4.53659785  T        2       1.88930312       1.45413596       0.79960220
Fe      14.22786876       5.52696522       4.63140871  T        2       1.69827101      -2.33227088      -0.22617302
Fe       6.19026238       6.08325737       4.48321259  T        2      -1.36454751      -2.35480824       1.47708266
Fe      10.01855206       6.09984985       4.48413577  T        2      -0.65683620      -1.05314702       1.51139904
Fe      16.22063420       8.97301076       4.61017324  T        2       1.09365945       0.25450442       0.81962200
Fe       8.15205518       9.90152008       4.47973048  T        2       2.66457719       2.34883348       0.28022678
Fe      12.21889065       8.98113179       4.56781715  T        2       1.04006944       0.88482041      -2.44476263
Fe      17.91646224      10.27650571       5.18062251  T        1      -0.43698780      -1.25674152      -2.03953669
Fe      10.50753452      10.31722372       5.19884619  T        1       1.41890510       1.84184844      -0.71412255
Fe      14.22189837       9.96199169       5.08281744  T        1       1.24318829      -0.18587885       3.87073215
Fe       2.03824472       3.36831008       5.24439950  T        1       0.68630885      -0.19008889       2.76301762
Fe       6.23112303       4.00030881       5.28602447  T        1       0.24839832       3.10626648       3.07540508
Fe       9.99993491       3.93342656       5.20824563  T        1      -0.43213906      -1.94433072      -2.80044145
Fe      16.03422881       6.72602778       5.23673297  T        1       4.90870256       1.80231438       2.30080534
Fe       8.13787527       7.63395815       5.18181274  T        1       1.57103593      -1.11651573       0.21656981
Fe      12.44413897       6.72867654       5.22937744  T        1       0.24507816       2.01856150       1.70799078
N        7.50886590       3.21703049       6.32194365  T        0       0.74524461       0.08297393       0.19046172
N        8.80533174       3.25691209       6.30151789  T        0       0.66504396       0.77669814      -0.11474154
74
Lattice="12.176378772032349 0.0 0.0 6.088189386016174 10.545053342681582 0.0 0.0 0.0 20.0" Properties=species:S:1:pos:R:3:move_mask:L:1:tags:I:1:momenta:R:3 pbc="T T F"
Fe      12.17637877       2.34334519       0.00000000  F        8       0.00000000       0.00000000       0.00000000
Fe       4.05879292       2.34334519       0.00000000  F        8       0.00000000       0.00000000       0.00000000
Fe       8.11758585       2.34334519       0.00000000  F        8       0.00000000       0.00000000       0.00000000
Fe      14.20577523       5.85836297       0.00000000  F        8       0.00000000       0.00000000       0.00000000
Fe       6.08818939       5.85836297       0.00000000  F        8       0.00000000       0.00000000       0.00000000
Fe      10.14698231       5.85836297       0.00000000  F        8       0.00000000       0.00000000       0.00000000
Fe      16.23517169       9.37338075       0.00000000  F        8       0.00000000       0.00000000       0.00000000
Fe       8.11758585       9.37338075       0.00000000  F        8       0.00000000       0.00000000       0.00000000
Fe      12.17637877       9.37338075       0.00000000  F        8       0.00000000       0.00000000       0.00000000
Fe       0.00000000       0.00000000       0.82849764  F        7       0.00000000       0.00000000       0.00000000
Fe       4.05879292       0.00000000       0.82849764  F        7       0.00000000       0.00000000       0.00000000
Fe       8.11758585       0.00000000       0.82849764  F        7       0.00000000       0.00000000       0.00000000
Fe       2.02939646       3.51501778       0.82849764  F        7       0.00000000       0.00000000       0.00000000
Fe       6.08818939       3.51501778       0.82849764  F        7       0.00000000       0.00000000       0.00000000
Fe      10.14698231       3.51501778       0.82849764  F        7       0.00000000       0.00000000       0.00000000
Fe       4.05879292       7.03003556       0.82849764  F        7       0.00000000       0.00000000       0.00000000
Fe       8.11758585       7.03003556       0.82849764  F        7       0.00000000       0.00000000       0.00000000
Fe      12.17637877       7.03003556       0.82849764  F        7       0.00000000       0.00000000       0.00000000
Fe       2.02939646       1.17167259       1.65699527  F        6       0.00000000       0.00000000       0.00000000
Fe       6.08818939       1.17167259       1.65699527  F        6       0.00000000       0.00000000       0.00000000
Fe      10.14698231       1.17167259       1.65699527  F        6       0.00000000       0.00000000       0.00000000
Fe       4.05879292       4.68669037       1.65699527  F        6       0.00000000       0.00000000       0.00000000
Fe       8.11758585       4.68669037       1.65699527  F        6       0.00000000       0.00000000       0.00000000
Fe      12.17637877       4.68669037       1.65699527  F        6       0.00000000       0.00000000       0.00000000
Fe       6.08818939       8.20170816       1.65699527  F        6       0.00000000       0.00000000       0.00000000
Fe      10.14698231       8.20170816       1.65699527  F        6       0.00000000       0.00000000       0.00000000
Fe      14.20577523       8.20170816       1.65699527  F        6       0.00000000       0.00000000       0.00000000
Fe      12.33764889       2.49124104       2.19812097  T        5       1.08546950       0.27161092      -0.56151001
Fe       3.91673048       2.50022307       2.22350187  T        5       0.25147855       0.91581986       1.22914264
Fe       8.12704405       2.37679411       2.13878007  T        5       0.66175634      -0.21713235       1.39856516
Fe      14.24244397       5.99445772       2.18458838  T        5       2.61755917      -1.31302698      -1.99920068
Fe       6.07959722       5.58235062       2.24674750  T        5      -0.95423903      -1.75277309       0.84711279
Fe      10.15226418       5.53645392       2.21728792  T        5       0.72791772      -4.94774474      -1.19481334
Fe      16.30429289       9.42593145       2.32576099  T        5       1.77551980      -0.13398866       1.13819975
Fe       8.07255768       9.29819971       2.25197023  T        5      -3.18006350       0.93951923       1.83478905
Fe      12.09323590       9.38592571       2.28767578  T        5      -2.76389623      -2.96562261      -1.55909921
Fe       0.16785141       0.23980646       3.05743947  T        4       0.71900414       0.35659276      -1.00157468
Fe       3.92529436       0.24865248       3.04246537  T        4       1.71027752       0.97768820      -2.03342494
Fe       8.11849706       0.17106973       2.99077979  T        4       0.05069932       0.17779076      -0.20142830
Fe      14.19675444       3.88733513       3.08732622  T        4      -0.66903390       2.35280010       3.36182632
Fe       6.10413497       3.12719925       3.14818089  T        4      -0.34707293      -1.83526505       1.10107038
Fe      10.09769000       3.22673869       3.15265572  T        4      -1.96350630       5.08763036       1.24057831
Fe       4.31771846       7.04208448       3.06441733  T        4      -1.79784805      -0.69349730      -0.48628860
Fe       8.08509540       6.85819456       3.03076835  T        4      -2.29560722      -2.23908008      -2.19646137
Fe      11.91313627       7.00226113       3.05457329  T        4       1.51033934      -3.55283681      -1.16866760
Fe       2.02386191       1.54105063       3.93848342  T        3      -0.37545620       2.09643121       0.60070778
Fe       6.05074422       0.83110976       3.98224255  T        3      -1.10654287      -0.21241231      -1.06550061
Fe      10.19512865       0.80912491       4.00969950  T        3       1.86059767      -1.75655513       0.87260887
Fe       4.25207978       4.69743793       3.94605046  T        3      -2.16483825       0.43172725      -0.05637974
Fe       8.17610974       4.70592939       3.88854549  T        3       4.12030140       1.84155580      -0.43404394
Fe      11.95585891       4.70814841       3.96353694  T        3       0.27945956       1.22657140       1.18887738
Fe       6.31398487       8.43641720       3.96341614  T        3       1.16634264       1.15189107       2.71338696
Fe       9.95274197       8.43008177       3.93054728  T        3       1.10566185       0.72785262       0.37896848
Fe      14.22761870       7.88277294       3.94448930  T        3       1.54963514       0.04741404       1.77995018
Fe      11.99008053       2.22121940       4.46134715  T        2       0.91539307      -3.42512589      -0.83490646
Fe       4.23872193       2.23632396       4.49194271  T        2      -1.38246136      -2.37157289       1.36580685
Fe       8.14403132       2.23820299       4.53730006  T        2       1.87369748       1.44526132       0.80139782
Fe      14.22935355       5.52493481       4.63121651  T        2       1.68718749      -2.29669868      -0.21162778
Fe       6.18906894       6.08120140       4.48450293  T        2      -1.35668238      -2.33285425       1.46499370
Fe      10.01797850       6.09893431       4.48545308  T        2      -0.65087617      -1.03401364       1.49199223
Fe      16.22158733       8.97323127       4.61089019  T        2       1.07935164       0.24814023       0.81508889
Fe       8.15438626       9.90357237       4.47997589  T        2       2.65062357       2.33054183       0.27935791
Fe      12.21980164       8.98190406       4.56567912  T        2       1.03722282       0.87595940      -2.43023906
Fe      17.91608333      10.27540923       5.17884627  T        1      -0.42671543      -1.24318485      -2.00998903
Fe      10.50877428      10.31883370       5.19822226  T        1       1.40784163       1.82905510      -0.70847758
Fe      14.22298571       9.96182993       5.08619702  T        1       1.23612294      -0.18290693       3.83482841
Fe       2.03884534       3.36814375       5.24681715  T        1       0.68319914      -0.18921825       2.74967182
Fe       6.23134516       4.00302107       5.28871123  T        1       0.25821755       3.07778005       3.05054453
Fe       9.99956379       3.93173073       5.20580384  T        1      -0.41340341      -1.92206989      -2.76659004
Fe      16.03852004       6.72760241       5.23874271  T        1       4.87581891       1.78798834       2.28151853
Fe       8.13924990       7.63298155       5.18199698  T        1       1.56334865      -1.11027075       0.20321103
Fe      12.44435566       6.73044133       5.23086648  T        1       0.24913876       2.00540079       1.68692327
N        7.51159739       3.21732500       6.32258952  T        0       0.81605221       0.08560296       0.17887690
N        8.80747739       3.25959814       6.30113103  T        0       0.56226445       0.75918345      -0.10609661
74
Lattice="12.176378772032349 0.0 0.0 6.088189386016174 10.545053342681582 0.0 0.0 0.0 20.0" Properties=species:S:1:pos:R:3:move_mask:L:1:tags:I:1:momenta:R:3 pbc="T T F"
Fe      12.17637877       2.34334519       0.00000000  F        8       0.00000000       0.00000000       0.00000000
Fe       4.05879292       2.34334519       0.00000000  F        8       0.00000000       0.00000000       0.00000000
Fe       8.11758585       2.34334519       0.00000000  F        8       0.00000000       0.00000000       0.00000000
Fe      14.20577523       5.85836297       0.00000000  F        8       0.00000000       0.00000000       0.00000000
Fe       6.08818939       5.85836297       0.00000000  F        8       0.00000000       0.00000000       0.00000000
Fe      10.14698231       5.85836297       0.00000000  F        8       0.00000000       0.00000000       0.00000000
Fe      16.23517169       9.37338075       0.00000000  F        8       0.00000000       0.00000000       0.00000000
Fe       8.11758585       9.37338075       0.00000000  F        8       0.00000000       0.00000000       0.00000000
Fe      12.17637877       9.37338075       0.00000000  F        8       0.00000000       0.00000000       0.00000000
Fe       0.00000000       0.00000000       0.82849764  F        7       0.00000000       0.00000000       0.00000000
Fe       4.05879292       0.00000000       0.82849764  F        7       0.00000000       0.00000000       0.00000000
Fe       8.11758585       0.00000000       0.82849764  F        7       0.00000000       0.00000000       0.00000000
Fe       2.02939646       3.51501778       0.82849764  F        7       0.00000000       0.00000000       0.00000000
Fe       6.08818939       3.51501778       0.82849764  F        7       0.00000000       0.00000000       0.00000000
Fe      10.14698231       3.51501778       0.82849764  F        7       0.00000000       0.00000000       0.00000000
Fe       4.05879292       7.03003556       0.82849764  F        7       0.00000000       0.00000000       0.00000000
Fe       8.11758585       7.03003556       0.82849764  F        7       0.00000000       0.00000000       0.00000000
Fe      12.17637877       7.03003556       0.82849764  F        7       0.00000000       0.00000000       0.00000000
Fe       2.02939646       1.17167259       1.65699527  F        6       0.00000000       0.00000000       0.00000000
Fe       6.08818939       1.17167259       1.65699527  F        6       0.00000000       0.00000000       0.00000000
Fe      10.14698231       1.17167259       1.65699527  F        6       0.00000000       0.00000000       0.00000000
Fe       4.05879292       4.68669037       1.65699527  F        6       0.00000000       0.00000000       0.00000000
Fe       8.11758585       4.68669037       1.65699527  F        6       0.00000000       0.00000000       0.00000000
Fe      12.17637877       4.68669037       1.65699527  F        6       0.00000000       0.00000000       0.00000000
Fe       6.08818939       8.20170816       1.65699527  F        6       0.00000000       0.00000000       0.00000000
Fe      10.14698231       8.20170816       1.65699527  F        6       0.00000000       0.00000000       0.00000000
Fe      14.20577523       8.20170816       1.65699527  F        6       0.00000000       0.00000000       0.00000000
Fe      12.33860922       2.49148390       2.19762500  T        5       1.08927697       0.27854369      -0.56159843
Fe       3.91695203       2.50103700       2.22459086  T        5       0.25016145       0.92764243       1.23705828
Fe       8.12762931       2.37660098       2.14001900  T        5       0.66358911      -0.22029957       1.40716262
Fe      14.24476325       5.99329779       2.18281715  T        5       2.63483506      -1.31360038      -2.01205773
Fe       6.07875221       5.58079754       2.24749842  T        5      -0.95936229      -1.76447174       0.85350963
Fe      10.15290952       5.53207674       2.21623448  T        5       0.73360672      -4.96460319      -1.19049623
Fe      16.30586563       9.42581227       2.32676859  T        5       1.78619870      -0.13594952       1.14361329
Fe       8.06974279       9.29903051       2.25359504  T        5      -3.19453445       0.94186126       1.84480467
Fe      12.09078836       9.38329949       2.28629515  T        5      -2.77889430      -2.98181665      -1.56754479
Fe       0.16848886       0.24012148       3.05655062  T        4       0.72463317       0.35674518      -1.01150054
Fe       3.92680749       0.24951697       3.04066532  T        4       1.71626782       0.97994417      -2.04297733
Fe       8.11854081       0.17122398       2.99060669  T        4       0.04830844       0.17126953      -0.19021379
Fe      14.19615948       3.88941397       3.09029787  T        4      -0.67856711       2.35459432       3.36742408
Fe       6.10382807       3.12557690       3.14916180  T        4      -0.34790911      -1.83853643       1.12075160
Fe      10.09595520       3.23123553       3.15374538  T        4      -1.96489838       5.09538144       1.22630552
Fe       4.31612750       7.04147052       3.06398834  T        4      -1.80505257      -0.69688637      -0.48509681
Fe       8.08306323       6.85621616       3.02882606  T        4      -2.30648275      -2.24094284      -2.20194255
Fe      11.91447412       6.99911233       3.05354129  T        4       1.51943940      -3.57822650      -1.16820895
Fe       2.02353084       1.54290703       3.93901439  T        3      -0.37417706       2.10761444       0.60164609
Fe       6.04976870       0.83092143       3.98129796  T        3      -1.10228790      -0.21405755      -1.07371632
Fe      10.19677145       0.80757041       4.01047041  T        3       1.85934251      -1.76371580       0.87309086
Fe       4.25016376       4.69781856       3.94600205  T        3      -2.17407909       0.43012252      -0.05308768
Fe       8.17975575       4.70755940       3.88816317  T        3       4.13629486       1.84977945      -0.43164387
Fe      11.95610926       4.70923578       3.96459167  T        3       0.28769051       1.23600081       1.19990001
Fe       6.31502159       8.43743297       3.96581776  T        3       1.18175212       1.14810169       2.72532859
Fe       9.95372011       8.43072424       3.93088146  T        3       1.10941555       0.72697987       0.37774089
Fe      14.22899096       7.88281379       3.94606538  T        3       1.55802025       0.04497299       1.78928073
Fe      11.99089069       2.21818724       4.46060704  T        2       0.91928567      -3.44146967      -0.84120580
Fe       4.23749688       2.23422319       4.49315383  T        2      -1.39190717      -2.38593164       1.37708560
Fe       8.14569030       2.23948400       4.53801330  T        2       1.88324480       1.45566786       0.81377686
Fe      14.23084873       5.52290871       4.63103492  T        2       1.69889492      -2.29105301      -0.19910008
Fe       6.18786616       6.07913701       4.48580011  T        2      -1.36728810      -2.34210859       1.47264598
Fe      10.01740246       6.09802354       4.48677098  T        2      -0.65359619      -1.02813318       1.49236945
Fe      16.22254058       8.97344903       4.61161288  T        2       1.07917031       0.24483118       0.82159400
Fe       8.15673681       9.90563637       4.48022389  T        2       2.67276577       2.34369149       0.28234458
Fe      12.22072263       8.98267894       4.56352478  T        2       1.04868462       0.87882217      -2.44876618
Fe      17.91570856      10.27430995       5.17707240  T        1      -0.42170541      -1.24614242      -2.00666237
Fe      10.51002110      10.32045426       5.19759486  T        1       1.41574105       1.84094214      -0.71234080
Fe      14.22408165       9.96166863       5.08959064  T        1       1.24587995      -0.18233017       3.85036258
Fe       2.03945141       3.36797588       5.24925606  T        1       0.68942485      -0.19100054       2.77390533
Fe       6.23157911       4.00574489       5.29141245  T        1       0.27180960       3.09057101       3.06665428
Fe       9.99920474       3.93003174       5.20335918  T        1      -0.39896577      -1.92526657      -2.76914624
Fe      16.04284065       6.72918579       5.24076267  T        1       4.90908057       1.79782124       2.29292916
Fe       8.14063651       7.63199716       5.18217166  T        1       1.57698638      -1.11911501       0.19201835
Fe      12.44457901       6.73221855       5.23235694  T        1       0.25685186       2.01948808       1.68817533
N        7.51461243       3.21763330       6.32320327  T        0       0.89590117       0.08968833       0.16970549
N        8.80929112       3.26225815       6.30077078  T        0       0.46792879       0.75146029      -0.09807861
74
Lattice="12.176378772032349 0.0 0.0 6.088189386016174 10.545053342681582 0.0 0.0 0.0 20.0" Properties=species:S:1:pos:R:3:move_mask:L:1:tags:I:1:momenta:R:3 pbc="T T F"
Fe      12.17637877       2.34334519       0.00000000  F        8       0.00000000       0.00000000       0.00000000
Fe       4.05879292       2.34334519       0.00000000  F        8       0.00000000       0.00000000       0.00000000
Fe       8.11758585       2.34334519       0.00000000  F        8       0.00000000       0.00000000       0.00000000
Fe      14.20577523       5.85836297       0.00000000  F        8       0.00000000       0.00000000       0.00000000
Fe       6.08818939       5.85836297       0.00000000  F        8       0.00000000       0.00000000       0.00000000
Fe      10.14698231       5.85836297       0.00000000  F        8       0.00000000       0.00000000       0.00000000
Fe      16.23517169       9.37338075       0.00000000  F        8       0.00000000       0.00000000       0.00000000
Fe       8.11758585       9.37338075       0.00000000  F        8       0.00000000       0.00000000       0.00000000
Fe      12.17637877       9.37338075       0.00000000  F        8       0.00000000       0.00000000       0.00000000
Fe       0.00000000       0.00000000       0.82849764  F        7       0.00000000       0.00000000       0.00000000
Fe       4.05879292       0.00000000       0.82849764  F        7       0.00000000       0.00000000       0.00000000
Fe       8.11758585       0.00000000       0.82849764  F        7       0.00000000       0.00000000       0.00000000
Fe       2.02939646       3.51501778       0.82849764  F        7       0.00000000       0.00000000       0.00000000
Fe       6.08818939       3.51501778       0.82849764  F        7       0.00000000       0.00000000       0.00000000
Fe      10.14698231       3.51501778       0.82849764  F        7       0.00000000       0.00000000       0.00000000
Fe       4.05879292       7.03003556       0.82849764  F        7       0.00000000       0.00000000       0.00000000
Fe       8.11758585       7.03003556       0.82849764  F        7       0.00000000       0.00000000       0.00000000
Fe      12.17637877       7.03003556       0.82849764  F        7       0.00000000       0.00000000       0.00000000
Fe       2.02939646       1.17167259       1.65699527  F        6       0.00000000       0.00000000       0.00000000
Fe       6.08818939       1.17167259       1.65699527  F        6       0.00000000       0.00000000       0.00000000
Fe      10.14698231       1.17167259       1.65699527  F        6       0.00000000       0.00000000       0.00000000
Fe       4.05879292       4.68669037       1.65699527  F        6       0.00000000       0.00000000       0.00000000
Fe       8.11758585       4.68669037       1.65699527  F        6       0.00000000       0.00000000       0.00000000
Fe      12.17637877       4.68669037       1.65699527  F        6       0.00000000       0.00000000       0.00000000
Fe       6.08818939       8.20170816       1.65699527  F        6       0.00000000       0.00000000       0.00000000
Fe      10.14698231       8.20170816       1.65699527  F        6       0.00000000       0.00000000       0.00000000
Fe      14.20577523       8.20170816       1.65699527  F        6       0.00000000       0.00000000       0.00000000
Fe      12.33956328       2.49173058       2.19713396  T        5       1.08200954       0.28300931      -0.55588451
Fe       3.91717014       2.50185340       2.22567599  T        5       0.24614900       0.93056364       1.23258931
Fe       8.12821030       2.37640693       2.14125315  T        5       0.65862715      -0.22139201       1.40163320
Fe      14.24707468       5.99214908       2.18105220  T        5       2.62576602      -1.30054377      -2.00482209
Fe       6.07791114       5.57924957       2.24824754  T        5      -0.95478387      -1.75858646       0.85143820
Fe      10.15355349       5.52772866       2.21519563  T        5       0.73201932      -4.93072178      -1.17351089
Fe      16.30743212       9.42569251       2.32777088  T        5       1.77895300      -0.13663098       1.13742381
Fe       8.06694331       9.29985503       2.25521246  T        5      -3.17663418       0.93457041       1.83622369
Fe      12.08835201       9.38068519       2.28492083  T        5      -2.76593724      -2.96801542      -1.56025650
Fe       0.16912495       0.24043344       3.05566176  T        4       0.72307240       0.35316303      -1.01154557
Fe       3.92831069       0.25037473       3.03887485  T        4       1.70473834       0.97210038      -2.03184036
Fe       8.11858196       0.17137074       2.99044550  T        4       0.04525869       0.16251592      -0.17634116
Fe      14.19556186       3.89147332       3.09324445  T        4      -0.68173266       2.33187308       3.33822657
Fe       6.10352352       3.12396803       3.15015060  T        4      -0.34516662      -1.82286294       1.12996993
Fe      10.09423671       3.23569380       3.15481094  T        4      -1.94594114       5.05049339       1.19807847
Fe       4.31454609       7.04085971       3.06356478  T        4      -1.79401177      -0.69322767      -0.47877291
Fe       8.08104177       6.85425612       3.02689845  T        4      -2.29407377      -2.21957304      -2.18490977
Fe      11.91580668       6.99597242       3.05252017  T        4       1.51336520      -3.56795624      -1.15556267
Fe       2.02320429       1.54475475       3.93954081  T        3      -0.36890444       2.09755566       0.59631756
Fe       6.04880695       0.83073355       3.98035550  T        3      -1.08622892      -0.21350846      -1.07125243
Fe      10.19839643       0.80602519       4.01123395  T        3       1.83856647      -1.75290669       0.86453227
Fe       4.24825885       4.69819386       3.94595715  T        3      -2.16113037       0.42388750      -0.04896672
Fe       8.18337926       4.70918037       3.88778688  T        3       4.11011890       1.83932397      -0.42465233
Fe      11.95636452       4.71032067       3.96564575  T        3       0.29340217       1.23312366       1.19921309
Fe       6.31606180       8.43843498       3.96820589  T        3       1.18591137       1.13205208       2.70970965
Fe       9.95469176       8.43135943       3.93121116  T        3       1.10189238       0.71850607       0.37256348
Fe      14.23035691       7.88285198       3.94763395  T        3       1.55070564       0.04183744       1.78060213
Fe      11.99169617       2.21517104       4.45986874  T        2       0.91385957      -3.42290220      -0.83909936
Fe       4.23627566       2.23213070       4.49436293  T        2      -1.38749888      -2.37632047       1.37476435
Fe       8.14734111       2.24076132       4.53873026  T        2       1.87375854       1.45124020       0.81777887
Fe      14.23233935       5.52090830       4.63086660  T        2       1.69360915      -2.26111707      -0.18354757
Fe       6.18666594       6.07708515       4.48709110  T        2      -1.36438438      -2.32754634       1.46549522
Fe      10.01682981       6.09712737       4.48807591  T        2      -0.64964246      -1.01108145       1.47733871
Fe      16.22348397       8.97366156       4.61233413  T        2       1.06763950       0.23870418       0.81992498
Fe       8.15908363       9.90769140       4.48047211  T        2       2.66852198       2.33333321       0.28260530
Fe      12.22164470       8.98344858       4.56137543  T        2       1.05001416       0.87274705      -2.44305117
Fe      17.91534219      10.27321914       5.17531957  T        1      -0.41186041      -1.23628242      -1.98211239
Fe      10.51126244      10.32206915       5.19697032  T        1       1.40940370       1.83438080      -0.70900330
Fe      14.22517534       9.96150949       5.09296401  T        1       1.24332257      -0.17983586       3.82689803
Fe       2.04005700       3.36780807       5.25169227  T        1       0.68888294      -0.19097659       2.77090142
Fe       6.23182286       4.00845273       5.29410086  T        1       0.28306528       3.07205923       3.05177883
Fe       9.99886261       3.92834708       5.20093708  T        1      -0.37900786      -1.90859639      -2.74278425
Fe      16.04714772       6.73076207       5.24277252  T        1       4.89354858       1.78965503       2.28123409
Fe       8.14202145       7.63101471       5.18233445  T        1       1.57509978      -1.11687940       0.17817058
Fe      12.44480707       6.73399057       5.23383344  T        1       0.26235601       2.01354745       1.67194635
N        7.51787498       3.21795344       6.32377864  T        0       0.96510547       0.09320588       0.15880125
N        8.81075617       3.26486364       6.30044379  T        0       0.36920596       0.73564832      -0.08816905
74
Lattice="12.176378772032349 0.0 0.0 6.088189386016174 10.545053342681582 0.0 0.0 0.0 20.0" Properties=species:S:1:pos:R:3:move_mask:L:1:tags:I:1:momenta:R:3 pbc="T T F"
Fe      12.17637877       2.34334519       0.00000000  F        8       0.00000000       0.00000000       0.00000000
Fe       4.05879292       2.34334519       0.00000000  F        8       0.00000000       0.00000000       0.00000000
Fe       8.11758585       2.34334519       0.00000000  F        8       0.00000000       0.00000000       0.00000000
Fe      14.20577523       5.85836297       0.00000000  F        8       0.00000000       0.00000000       0.00000000
Fe       6.08818939       5.85836297       0.00000000  F        8       0.00000000       0.00000000       0.00000000
Fe      10.14698231       5.85836297       0.00000000  F        8       0.00000000       0.00000000       0.00000000
Fe      16.23517169       9.37338075       0.00000000  F        8       0.00000000       0.00000000       0.00000000
Fe       8.11758585       9.37338075       0.00000000  F        8       0.00000000       0.00000000       0.00000000
Fe      12.17637877       9.37338075       0.00000000  F        8       0.00000000       0.00000000       0.00000000
Fe       0.00000000       0.00000000       0.82849764  F        7       0.00000000       0.00000000       0.00000000
Fe       4.05879292       0.00000000       0.82849764  F        7       0.00000000       0.00000000       0.00000000
Fe       8.11758585       0.00000000       0.82849764  F        7       0.00000000       0.00000000       0.00000000
Fe       2.02939646       3.51501778       0.82849764  F        7       0.00000000       0.00000000       0.00000000
Fe       6.08818939       3.51501778       0.82849764  F        7       0.00000000       0.00000000       0.00000000
Fe      10.14698231       3.51501778       0.82849764  F        7       0.00000000       0.00000000       0.00000000
Fe       4.05879292       7.03003556       0.82849764  F        7       0.00000000       0.00000000       0.00000000
Fe       8.11758585       7.03003556       0.82849764  F        7       0.00000000       0.00000000       0.00000000
Fe      12.17637877       7.03003556       0.82849764  F        7       0.00000000       0.00000000       0.00000000
Fe       2.02939646       1.17167259       1.65699527  F        6       0.00000000       0.00000000       0.00000000
Fe       6.08818939       1.17167259       1.65699527  F        6       0.00000000       0.00000000       0.00000000
Fe      10.14698231       1.17167259       1.65699527  F        6       0.00000000       0.00000000       0.00000000
Fe       4.05879292       4.68669037       1.65699527  F        6       0.00000000       0.00000000       0.00000000
Fe       8.11758585       4.68669037       1.65699527  F        6       0.00000000       0.00000000       0.00000000
Fe      12.17637877       4.68669037       1.65699527  F        6       0.00000000       0.00000000       0.00000000
Fe       6.08818939       8.20170816       1.65699527  F        6       0.00000000       0.00000000       0.00000000
Fe      10.14698231       8.20170816       1.65699527  F        6       0.00000000       0.00000000       0.00000000
Fe      14.20577523       8.20170816       1.65699527  F        6       0.00000000       0.00000000       0.00000000
Fe      12.34050934       2.49198090       2.19664881  T        5       1.07275876       0.28725671      -0.54908205
Fe       3.91738429       2.50267116       2.22675541  T        5       0.24156048       0.93221948       1.22601825
Fe       8.12878592       2.37621220       2.14248041  T        5       0.65241641      -0.22221843       1.39367897
Fe      14.24937436       5.99101390       2.17929648  T        5       2.61224322      -1.28487580      -1.99422017
Fe       6.07707552       5.57770928       2.24899363  T        5      -0.94848667      -1.74977810       0.84797944
Fe      10.15419502       5.52341790       2.21417368  T        5       0.72923851      -4.88753302      -1.15390571
Fe      16.30898965       9.42557233       2.32876602  T        5       1.76863823      -0.13715213       1.12915780
Fe       8.06416430       9.30067171       2.25681963  T        5      -3.15298495       0.92552093       1.82440057
Fe      12.08593110       9.37808736       2.28355518  T        5      -2.74815856      -2.94904145      -1.55028600
Fe       0.16975865       0.24074167       3.05477424  T        4       0.72033038       0.34883518      -1.01007416
Fe       3.92980118       0.25122407       3.03709720  T        4       1.69001253       0.96234859      -2.01703686
Fe       8.11862029       0.17150938       2.99029702  T        4       0.04198604       0.15305020      -0.16155403
Fe      14.19496229       3.89350897       3.09616013  T        4      -0.68411319       2.30436066       3.30242133
Fe       6.10322192       3.12237577       3.15114614  T        4      -0.34175608      -1.80363186       1.13787803
Fe      10.09253793       3.24010470       3.15584932  T        4      -1.92310388       4.99562087       1.16634618
Fe       4.31297704       7.04025314       3.06314756  T        4      -1.77979042      -0.68832741      -0.47140338
Fe       8.07903460       6.85231836       3.02498914  T        4      -2.27760334      -2.19375054      -2.16377998
Fe      11.91713174       6.99284664       3.05151201  T        4       1.50475852      -3.55173086      -1.14054036
Fe       2.02288301       1.54659054       3.94006159  T        3      -0.36279302       2.08380345       0.58976014
Fe       6.04786117       0.83054649       3.97941674  T        3      -1.06766349      -0.21253400      -1.06701258
Fe      10.20000016       0.80449213       4.01198862  T        3       1.81388263      -1.73883216       0.85425632
Fe       4.24636860       4.69856295       3.94591606  T        3      -2.14410598       0.41664658      -0.04449858
Fe       8.18697353       4.71078943       3.88741744  T        3       4.07626904       1.82561861      -0.41673042
Fe      11.95662450       4.71140127       3.96669761  T        3       0.29889726       1.22818653       1.19675425
Fe       6.31710417       8.43942097       3.97057628  T        3       1.18854937       1.11342216       2.68925250
Fe       9.95565514       8.43198601       3.93153572  T        3       1.09235845       0.70854685       0.36662400
Fe      14.23171415       7.88288726       3.94919229  T        3       1.54065898       0.03841599       1.76881419
Fe      11.99249552       2.21217629       4.45913350  T        2       0.90678087      -3.39809111      -0.83555853
Fe       4.23506029       2.23005013       4.49556806  T        2      -1.38080200      -2.36258003       1.37026250
Fe       8.14898081       2.24203252       4.53944941  T        2       1.86092306       1.44402318       0.81999522
Fe      14.23382288       5.51893797       4.63071259  T        2       1.68543502      -2.22618346      -0.16678797
Fe       6.18547017       6.07504960       4.48837367  T        2      -1.35931340      -2.30870234       1.45580676
Fe      10.01626162       6.09624798       4.48936533  T        2      -0.64446335      -0.99155287       1.45943147
Fe      16.22441546       8.97386822       4.61305275  T        2       1.05381226       0.23184807       0.81689620
Fe       8.16142300       9.90973393       4.48072018  T        2       2.66004392       2.31897590       0.28247348
Fe      12.22256656       8.98421157       4.55923454  T        2       1.04986875       0.86507374      -2.43341139
Fe      17.91498529      10.27213892       5.17359161  T        1      -0.40076982      -1.22402039      -1.95321390
Fe      10.51249615      10.32367561       5.19634977  T        1       1.40060779       1.82466741      -0.70439127
Fe      14.22626505       9.96135283       5.09631106  T        1       1.23878660      -0.17696642       3.79655892
Fe       2.04066116       3.36764051       5.25412204  T        1       0.68728096      -0.19072782       2.76363012
Fe       6.23207620       4.01113973       5.29677167  T        1       0.29404059       3.04802915       3.03143306
Fe       9.99853916       3.92668005       5.19854258  T        1      -0.35704513      -1.88820002      -2.71065648
Fe      16.05143421       6.73232860       5.24476875  T        1       4.87001888       1.77845794       2.26553481
Fe       8.14340254       7.63003580       5.18248455  T        1       1.57075219      -1.11284874       0.16342471
Fe      12.44503973       6.73575454       5.23529304  T        1       0.26770537       2.00435336       1.65239105
N        7.52136957       3.21828587       6.32431511  T        0       1.02952622       0.09683664       0.14780668
N        8.81187610       3.26740876       6.30015346  T        0       0.27191554       0.71821259      -0.07731117
74
Lattice="12.176378772032349 0.0 0.0 6.088189386016174 10.545053342681582 0.0 0.0 0.0 20.0" Properties=species:S:1:pos:R:3:move_mask:L:1:tags:I:1:momenta:R:3 pbc="T T F"
Fe      12.17637877       2.34334519       0.00000000  F        8       0.00000000       0.00000000       0.00000000
Fe       4.05879292       2.34334519       0.00000000  F        8       0.00000000       0.00000000       0.00000000
Fe       8.11758585       2.34334519       0.00000000  F        8       0.00000000       0.00000000       0.00000000
Fe      14.20577523       5.85836297       0.00000000  F        8       0.00000000       0.00000000       0.00000000
Fe       6.08818939       5.85836297       0.00000000  F        8       0.00000000       0.00000000       0.00000000
Fe      10.14698231       5.85836297       0.00000000  F        8       0.00000000       0.00000000       0.00000000
Fe      16.23517169       9.37338075       0.00000000  F        8       0.00000000       0.00000000       0.00000000
Fe       8.11758585       9.37338075       0.00000000  F        8       0.00000000       0.00000000       0.00000000
Fe      12.17637877       9.37338075       0.00000000  F        8       0.00000000       0.00000000       0.00000000
Fe       0.00000000       0.00000000       0.82849764  F        7       0.00000000       0.00000000       0.00000000
Fe       4.05879292       0.00000000       0.82849764  F        7       0.00000000       0.00000000       0.00000000
Fe       8.11758585       0.00000000       0.82849764  F        7       0.00000000       0.00000000       0.00000000
Fe       2.02939646       3.51501778       0.82849764  F        7       0.00000000       0.00000000       0.00000000
Fe       6.08818939       3.51501778       0.82849764  F        7       0.00000000       0.00000000       0.00000000
Fe      10.14698231       3.51501778       0.82849764  F        7       0.00000000       0.00000000       0.00000000
Fe       4.05879292       7.03003556       0.82849764  F        7       0.00000000       0.00000000       0.00000000
Fe       8.11758585       7.03003556       0.82849764  F        7       0.00000000       0.00000000       0.00000000
Fe      12.17637877       7.03003556       0.82849764  F        7       0.00000000       0.00000000       0.00000000
Fe       2.02939646       1.17167259       1.65699527  F        6       0.00000000       0.00000000       0.00000000
Fe       6.08818939       1.17167259       1.65699527  F        6       0.00000000       0.00000000       0.00000000
Fe      10.14698231       1.17167259       1.65699527  F        6       0.00000000       0.00000000       0.00000000
Fe       4.05879292       4.68669037       1.65699527  F        6       0.00000000       0.00000000       0.00000000
Fe       8.11758585       4.68669037       1.65699527  F        6       0.00000000       0.00000000       0.00000000
Fe      12.17637877       4.68669037       1.65699527  F        6       0.00000000       0.00000000       0.00000000
Fe       6.08818939       8.20170816       1.65699527  F        6       0.00000000       0.00000000       0.00000000
Fe      10.14698231       8.20170816       1.65699527  F        6       0.00000000       0.00000000       0.00000000
Fe      14.20577523       8.20170816       1.65699527  F        6       0.00000000       0.00000000       0.00000000
Fe      12.34145933       2.49223830       2.19616349  T        5       1.07710493       0.29543189      -0.54917649
Fe       3.91759709       2.50350105       2.22784292  T        5       0.23991723       0.94611379       1.23513861
Fe       8.12936342       2.37601417       2.14371641  T        5       0.65443610      -0.22599558       1.40352914
Fe      14.25169170       5.98987812       2.17752751  T        5       2.63217298      -1.28527886      -2.00919634
Fe       6.07623474       5.57615692       2.24974630  T        5      -0.95423659      -1.76343959       0.85543401
Fe      10.15484238       5.51909018       2.21315616  T        5       0.73584192      -4.90601264      -1.14848073
Fe      16.31055810       9.42545011       2.32976661  T        5       1.78092554      -0.13950173       1.13520813
Fe       8.06137056       9.30149084       2.25843700  T        5      -3.16936642       0.92816007       1.83581864
Fe      12.08349477       9.37547290       2.28218077  T        5      -2.76545492      -2.96770859      -1.56014198
Fe       0.17039810       0.24104999       3.05387650  T        4       0.72685530       0.34883010      -1.02173082
Fe       3.93129771       0.25207563       3.03530984  T        4       1.69663429       0.96466897      -2.02785330
Fe       8.11865617       0.17164125       2.99015996  T        4       0.03911188       0.14512739      -0.14825636
Fe      14.19435273       3.89554617       3.09908132  T        4      -0.69562305       2.30554399       3.30800295
Fe       6.10291948       3.12078020       3.15216175  T        4      -0.34264369      -1.80705479       1.16093207
Fe      10.09083771       3.24452331       3.15687240  T        4      -1.92434034       5.00336069       1.14810843
Fe       4.31140040       7.03964312       3.06273159  T        4      -1.78824393      -0.69217995      -0.46984851
Fe       8.07701622       6.85037877       3.02307407  T        4      -2.29014611      -2.19536278      -2.16999877
Fe      11.91846627       6.98969490       3.05050432  T        4       1.51546436      -3.58108158      -1.13972920
Fe       2.02256307       1.54843777       3.94058318  T        3      -0.36112172       2.09661095       0.59054608
Fe       6.04691991       0.83035791       3.97846961  T        3      -1.06212853      -0.21421095      -1.07647288
Fe      10.20160238       0.80295189       4.01274381  T        3       1.81166467      -1.74673840       0.85468458
Fe       4.24446924       4.69893027       3.94587851  T        3      -2.15412853       0.41445940      -0.04033924
Fe       8.19058387       4.71240706       3.88705033  T        3       4.09393232       1.83518230      -0.41395562
Fe      11.95689281       4.71249143       3.96776096  T        3       0.30847863       1.23900036       1.20988427
Fe       6.31816250       8.44040290       3.97295901  T        3       1.20688745       1.10841611       2.70301047
Fe       9.95662245       8.43261175       3.93185915  T        3       1.09668445       0.70741181       0.36526075
Fe      14.23307995       7.88291988       3.95076025  T        3       1.55024530       0.03527779       1.77959825
Fe      11.99329886       2.20916508       4.45839193  T        2       0.91121817      -3.41636859      -0.84269706
Fe       4.23383516       2.22795496       4.49678480  T        2      -1.39185710      -2.37900056       1.38345993
Fe       8.15063020       2.24331356       4.54017957  T        2       1.87175720       1.45492932       0.83221434
Fe      14.23531828       5.51697363       4.63057181  T        2       1.69882439      -2.21864080      -0.15128885
Fe       6.18426342       6.07300463       4.48966417  T        2      -1.37179595      -2.31910219       1.46471897
Fe      10.01569075       6.09537485       4.49065539  T        2      -0.64741539      -0.98398234       1.45987940
Fe      16.22534653       8.97407134       4.61377796  T        2       1.05300692       0.22764079       0.82435933
Fe       8.16378513       9.91179007       4.48097136  T        2       2.68591519       2.33428771       0.28604497
Fe      12.22350029       8.98497756       4.55707449  T        2       1.06346591       0.86836924      -2.45515109
Fe      17.91463385      10.27105574       5.17186736  T        1      -0.39427011      -1.22713726      -1.94837549
Fe      10.51373795      10.32529416       5.19572534  T        1       1.40968298       1.83828029      -0.70872663
Fe      14.22736484       9.96119671       5.09967424  T        1       1.25024520      -0.17630295       3.81448925
Fe       2.04127173       3.36747096       5.25657686  T        1       0.69458646      -0.19302053       2.79216816
Fe       6.23234256       4.01383997       5.29945877  T        1       0.30889833       3.06275510       3.04960629
Fe       9.99823155       3.92500978       5.19614612  T        1      -0.33832276      -1.89154622      -2.71210875
Fe      16.05575524       6.73390541       5.24677675  T        1       4.90917807       1.79005180       2.27872825
Fe       8.14479768       7.62904781       5.18262329  T        1       1.58672581      -1.12317063       0.15021156
Fe      12.44528023       6.73753317       5.23675396  T        1       0.27675562       2.02099409       1.65353491
N        7.52512976       3.21863582       6.32482020  T        0       1.10310302       0.10194584       0.13901628
N        8.81267228       3.26992468       6.29989900  T        0       0.18116275       0.70969847      -0.06669191
74
Lattice="12.176378772032349 0.0 0.0 6.088189386016174 10.545053342681582 0.0 0.0 0.0 20.0" Properties=species:S:1:pos:R:3:move_mask:L:1:tags:I:1:momenta:R:3 pbc="T T F"
Fe      12.17637877       2.34334519       0.00000000  F        8       0.00000000       0.00000000       0.00000000
Fe       4.05879292       2.34334519       0.00000000  F        8       0.00000000       0.00000000       0.00000000
Fe       8.11758585       2.34334519       0.00000000  F        8       0.00000000       0.00000000       0.00000000
Fe      14.20577523       5.85836297       0.00000000  F        8       0.00000000       0.00000000       0.00000000
Fe       6.08818939       5.85836297       0.00000000  F        8       0.00000000       0.00000000       0.00000000
Fe      10.14698231       5.85836297       0.00000000  F        8       0.00000000       0.00000000       0.00000000
Fe      16.23517169       9.37338075       0.00000000  F        8       0.00000000       0.00000000       0.00000000
Fe       8.11758585       9.37338075       0.00000000  F        8       0.00000000       0.00000000       0.00000000
Fe      12.17637877       9.37338075       0.00000000  F        8       0.00000000       0.00000000       0.00000000
Fe       0.00000000       0.00000000       0.82849764  F        7       0.00000000       0.00000000       0.00000000
Fe       4.05879292       0.00000000       0.82849764  F        7       0.00000000       0.00000000       0.00000000
Fe       8.11758585       0.00000000       0.82849764  F        7       0.00000000       0.00000000       0.00000000
Fe       2.02939646       3.51501778       0.82849764  F        7       0.00000000       0.00000000       0.00000000
Fe       6.08818939       3.51501778       0.82849764  F        7       0.00000000       0.00000000       0.00000000
Fe      10.14698231       3.51501778       0.82849764  F        7       0.00000000       0.00000000       0.00000000
Fe       4.05879292       7.03003556       0.82849764  F        7       0.00000000       0.00000000       0.00000000
Fe       8.11758585       7.03003556       0.82849764  F        7       0.00000000       0.00000000       0.00000000
Fe      12.17637877       7.03003556       0.82849764  F        7       0.00000000       0.00000000       0.00000000
Fe       2.02939646       1.17167259       1.65699527  F        6       0.00000000       0.00000000       0.00000000
Fe       6.08818939       1.17167259       1.65699527  F        6       0.00000000       0.00000000       0.00000000
Fe      10.14698231       1.17167259       1.65699527  F        6       0.00000000       0.00000000       0.00000000
Fe       4.05879292       4.68669037       1.65699527  F        6       0.00000000       0.00000000       0.00000000
Fe       8.11758585       4.68669037       1.65699527  F        6       0.00000000       0.00000000       0.00000000
Fe      12.17637877       4.68669037       1.65699527  F        6       0.00000000       0.00000000       0.00000000
Fe       6.08818939       8.20170816       1.65699527  F        6       0.00000000       0.00000000       0.00000000
Fe      10.14698231       8.20170816       1.65699527  F        6       0.00000000       0.00000000       0.00000000
Fe      14.20577523       8.20170816       1.65699527  F        6       0.00000000       0.00000000       0.00000000
Fe      12.34241083       2.49250244       2.19567931  T        5       1.07866848       0.30321923      -0.54776513
Fe       3.91780784       2.50434141       2.22893590  T        5       0.23750789       0.95811667       1.24127512
Fe       8.12994125       2.37581323       2.14495816  T        5       0.65471999      -0.22935924       1.40995004
Fe      14.25402113       5.98874490       2.17574950  T        5       2.64576599      -1.28209001      -2.01937739
Fe       6.07539093       5.57459615       2.25050379  T        5      -0.95756851      -1.77292447       0.86089513
Fe      10.15549406       5.51475694       2.21214618  T        5       0.74073200      -4.91150823      -1.13951992
Fe      16.31213365       9.42532606       2.33077009  T        5       1.78886546      -0.14160693       1.13834812
Fe       8.05856918       9.30231026       2.26006054  T        5      -3.17767388       0.92834631       1.84266386
Fe      12.08104903       9.37284824       2.28080094  T        5      -2.77593440      -2.97906492      -1.56619596
Fe       0.17104182       0.24135749       3.05297050  T        4       0.73168465       0.34780476      -1.03117169
Fe       3.93279637       0.25292708       3.03351728  T        4       1.69879547       0.96434996      -2.03352124
Fe       8.11868934       0.17176558       2.99003529  T        4       0.03596494       0.13632456      -0.13384736
Fe      14.19373425       3.89757912       3.10200000  T        4      -0.70591549       2.30014712       3.30447319
Fe       6.10261703       3.11918564       3.15319562  T        4      -0.34260742      -1.80555683       1.18194109
Fe      10.08914075       3.24893751       3.15787617  T        4      -1.92022084       4.99730748       1.12530218
Fe       4.30982012       7.03903119       3.06231811  T        4      -1.79222113      -0.69428734      -0.46687688
Fe       8.07499164       6.84844272       3.02115828  T        4      -2.29696849      -2.19084120      -2.17051342
Fe      11.91980710       6.98652468       3.04949996  T        4       1.52256153      -3.60193118      -1.13566395
Fe       2.02224549       1.55029185       3.94110412  T        3      -0.35831851       2.10421186       0.58965555
Fe       6.04598612       0.83016833       3.97751636  T        3      -1.05321753      -0.21529470      -1.08339216
Fe      10.20319842       0.80140848       4.01349745  T        3       1.80411602      -1.75008043       0.85274660
Fe       4.24256576       4.69929463       3.94584485  T        3      -2.15846198       0.41091978      -0.03575973
Fe       8.19420085       4.71402922       3.88668665  T        3       4.10087106       1.84017474      -0.40992753
Fe      11.95716908       4.71358857       3.96883351  T        3       0.31765892       1.24686634       1.22042410
Fe       6.31923477       8.44137774       3.97534810  T        3       1.22292290       1.09993671       2.70995868
Fe       9.95759120       8.43323486       3.93218054  T        3       1.09819600       0.70424625       0.36285025
Fe      14.23445092       7.88294954       3.95233395  T        3       1.55597558       0.03180267       1.78598891
Fe      11.99410416       2.20614511       4.45764582  T        2       0.91333559      -3.42589279      -0.84778707
Fe       4.23260314       2.22585030       4.49801038  T        2      -1.39964299      -2.38958033       1.39352021
Fe       8.15228516       2.24460102       4.54091858  T        2       1.87788439       1.46192115       0.84191913
Fe      14.23682194       5.51502123       4.63044551  T        2       1.70810695      -2.20432785      -0.13432643
Fe       6.18304843       6.07095552       4.49095945  T        2      -1.38115240      -2.32350462       1.47003985
Fe      10.01511869       6.09451088       4.49194257  T        2      -0.64865921      -0.97310566       1.45635933
Fe      16.22627442       8.97427009       4.61450805  T        2       1.04907757       0.22248283       0.82988668
Fe       8.16616465       9.91385483       4.48122515  T        2       2.70567907       2.34393094       0.28903387
Fe      12.22444398       8.98574457       4.55490027  T        2       1.07487374       0.86942492      -2.47124034
Fe      17.91428926      10.26997256       5.17015200  T        1      -0.38614663      -1.22692268      -1.93764411
Fe      10.51498477      10.32692087       5.19509861  T        1       1.41527907       1.84742234      -0.71126717
Fe      14.22847220       9.96104158       5.10304506  T        1       1.25885436      -0.17513539       3.82276099
Fe       2.04188736       3.36729975       5.25905127  T        1       0.70035351      -0.19495940       2.81449513
Fe       6.23262152       4.01654664       5.30215537  T        1       0.32323173       3.06973666       3.06005779
Fe       9.99794190       3.92334076       5.19375469  T        1      -0.31717629      -1.88979328      -2.70559740
Fe      16.06010075       6.73548871       5.24879156  T        1       4.93689203       1.79733407       2.28626889
Fe       8.14620371       7.62805299       5.18274973  T        1       1.59913889      -1.13091789       0.13590111
Fe      12.44552831       6.73932235       5.23821215  T        1       0.28549624       2.03296081       1.65009572
N        7.52913369       3.21900341       6.32529357  T        0       1.17001868       0.10707326       0.13019399
N        8.81315121       3.27240393       6.29968406  T        0       0.09273146       0.69910290      -0.05505095
74
Lattice="12.176378772032349 0.0 0.0 6.088189386016174 10.545053342681582 0.0 0.0 0.0 20.0" Properties=species:S:1:pos:R:3:move_mask:L:1:tags:I:1:momenta:R:3 pbc="T T F"
Fe      12.17637877       2.34334519       0.00000000  F        8       0.00000000       0.00000000       0.00000000
Fe       4.05879292       2.34334519       0.00000000  F        8       0.00000000       0.00000000       0.00000000
Fe       8.11758585       2.34334519       0.00000000  F        8       0.00000000       0.00000000       0.00000000
Fe      14.20577523       5.85836297       0.00000000  F        8       0.00000000       0.00000000       0.00000000
Fe       6.08818939       5.85836297       0.00000000  F        8       0.00000000       0.00000000       0.00000000
Fe      10.14698231       5.85836297       0.00000000  F        8       0.00000000       0.00000000       0.00000000
Fe      16.23517169       9.37338075       0.00000000  F        8       0.00000000       0.00000000       0.00000000
Fe       8.11758585       9.37338075       0.00000000  F        8       0.00000000       0.00000000       0.00000000
Fe      12.17637877       9.37338075       0.00000000  F        8       0.00000000       0.00000000       0.00000000
Fe       0.00000000       0.00000000       0.82849764  F        7       0.00000000       0.00000000       0.00000000
Fe       4.05879292       0.00000000       0.82849764  F        7       0.00000000       0.00000000       0.00000000
Fe       8.11758585       0.00000000       0.82849764  F        7       0.00000000       0.00000000       0.00000000
Fe       2.02939646       3.51501778       0.82849764  F        7       0.00000000       0.00000000       0.00000000
Fe       6.08818939       3.51501778       0.82849764  F        7       0.00000000       0.00000000       0.00000000
Fe      10.14698231       3.51501778       0.82849764  F        7       0.00000000       0.00000000       0.00000000
Fe       4.05879292       7.03003556       0.82849764  F        7       0.00000000       0.00000000       0.00000000
Fe       8.11758585       7.03003556       0.82849764  F        7       0.00000000       0.00000000       0.00000000
Fe      12.17637877       7.03003556       0.82849764  F        7       0.00000000       0.00000000       0.00000000
Fe       2.02939646       1.17167259       1.65699527  F        6       0.00000000       0.00000000       0.00000000
Fe       6.08818939       1.17167259       1.65699527  F        6       0.00000000       0.00000000       0.00000000
Fe      10.14698231       1.17167259       1.65699527  F        6       0.00000000       0.00000000       0.00000000
Fe       4.05879292       4.68669037       1.65699527  F        6       0.00000000       0.00000000       0.00000000
Fe       8.11758585       4.68669037       1.65699527  F        6       0.00000000       0.00000000       0.00000000
Fe      12.17637877       4.68669037       1.65699527  F        6       0.00000000       0.00000000       0.00000000
Fe       6.08818939       8.20170816       1.65699527  F        6       0.00000000       0.00000000       0.00000000
Fe      10.14698231       8.20170816       1.65699527  F        6       0.00000000       0.00000000       0.00000000
Fe      14.20577523       8.20170816       1.65699527  F        6       0.00000000       0.00000000       0.00000000
Fe      12.34335950       2.49277244       2.19519855  T        5       1.07531131       0.30998273      -0.54377580
Fe       3.91801548       2.50518886       2.23002953  T        5       0.23387807       0.96628106       1.24194929
Fe       8.13051676       2.37561014       2.14620016  T        5       0.65197464      -0.23184101       1.41013009
Fe      14.25635243       5.98761961       2.17397021  T        5       2.64773388      -1.27279565      -2.02073298
Fe       6.07454790       5.57303376       2.25126284  T        5      -0.95657239      -1.77469053       0.86263716
Fe      10.15614724       5.51043815       2.21114880  T        5       0.74242243      -4.89427612      -1.12481838
Fe      16.31370934       9.42520065       2.33177191  T        5       1.78889046      -0.14318150       1.13631281
Fe       8.05577282       9.30312620       2.26168301  T        5      -3.17159157       0.92424581       1.84126574
Fe      12.07860473       9.37022503       2.27942178  T        5      -2.77407088      -2.97718067      -1.56533221
Fe       0.17168702       0.24166268       3.05206001  T        4       0.73334963       0.34507382      -1.03631757
Fe       3.93429028       0.25377441       3.03172762  T        4       1.69312835       0.95948569      -2.02999922
Fe       8.11871952       0.17188139       2.98992417  T        4       0.03248932       0.12641343      -0.11813650
Fe      14.19310920       3.89959807       3.10490242  T        4      -0.71356003       2.28364097       3.28532363
Fe       6.10231595       3.11759956       3.15424383  T        4      -0.34097198      -1.79558100       1.19846936
Fe      10.08745508       3.25332649       3.15885472  T        4      -1.90697040       4.96761307       1.09578565
Fe       4.30824325       7.03842008       3.06190915  T        4      -1.78817521      -0.69326959      -0.46158141
Fe       8.07296991       6.84651942       3.01925053  T        4      -2.29351043      -2.17587922      -2.16104495
Fe      11.92114839       6.98334980       3.04850375  T        4       1.52301828      -3.60706894      -1.12612392
Fe       2.02193187       1.55214452       3.94162191  T        3      -0.35368749       2.10242102       0.58592847
Fe       6.04506458       0.82997865       3.97656112  T        3      -1.03888513      -0.21534722      -1.08559629
Fe      10.20478048       0.79986898       4.01424599  T        3       1.78770268      -1.74538047       0.84677050
Fe       4.24066693       4.69965414       3.94581551  T        3      -2.15280888       0.40522608      -0.03070526
Fe       8.19780789       4.71564868       3.88632820  T        3       4.08893973       1.83695042      -0.40386273
Fe      11.95745239       4.71468789       3.96991084  T        3       0.32576070       1.24927913       1.22592411
Fe       6.32031678       8.44234053       3.97773283  T        3       1.23417502       1.08584917       2.70471882
Fe       9.95855702       8.43385234       3.93249834  T        3       1.09472219       0.69767892       0.35869090
Fe      14.23582093       7.88297590       3.95390641  T        3       1.55475013       0.02794319       1.78443370
Fe      11.99490778       2.20313008       4.45689848  T        2       0.91132101      -3.41984748      -0.84912153
Fe       4.23136957       2.22374551       4.49923960  T        2      -1.40136539      -2.38955120       1.39765227
Fe       8.15393825       2.24588886       4.54166268  T        2       1.87557064       1.46203496       0.84730853
Fe      14.23832725       5.51309052       4.63033518  T        2       1.70986247      -2.17895306      -0.11569954
Fe       6.18183040       6.06891159       4.49225377  T        2      -1.38461566      -2.31729742       1.46884651
Fe      10.01454808       6.09366064       4.49322088  T        2      -0.64690547      -0.95704274       1.44602745
Fe      16.22719457       8.97446326       4.61523987  T        2       1.03996459       0.21595063       0.83181641
Fe       8.16855141       9.91591910       4.48148052  T        2       2.71390476       2.34324082       0.29085796
Fe      12.22539377       8.98650912       4.55272120  T        2       1.08192050       0.86652066      -2.47672859
Fe      17.91395362      10.26889442       5.16845404  T        1      -0.37566012      -1.22095099      -1.91723721
Fe      10.51623108      10.32854855       5.19447239  T        1       1.41457390       1.84840064      -0.71059495
Fe      14.22958241       9.96088819       5.10640836  T        1       1.26209334      -0.17312918       3.81379925
Fe       2.04250546       3.36712753       5.26153483  T        1       0.70317401      -0.19615295       2.82494955
Fe       6.23291196       4.01924757       5.30484932  T        1       0.33627739       3.06289223       3.05667967
Fe       9.99767282       3.92168075       5.19137999  T        1      -0.29306849      -1.87925052      -2.68574278
Fe      16.06445199       6.73707156       5.25080420  T        1       4.94330967       1.79672939       2.28361067
Fe       8.14761469       7.62705560       5.18286270  T        1       1.60477970      -1.13382684       0.12029616
Fe      12.44578316       6.74111440       5.23966074  T        1       0.29331875       2.03619148       1.63883451
N        7.53334718       3.21938783       6.32573459  T        0       1.22673709       0.11194898       0.12124846
N        8.81332356       3.27483470       6.29951236  T        0       0.00783293       0.68518193      -0.04236832
74
Lattice="12.176378772032349 0.0 0.0 6.088189386016174 10.545053342681582 0.0 0.0 0.0 20.0" Properties=species:S:1:pos:R:3:move_mask:L:1:tags:I:1:momenta:R:3 pbc="T T F"
Fe      12.17637877       2.34334519       0.00000000  F        8       0.00000000       0.00000000       0.00000000
Fe       4.05879292       2.34334519       0.00000000  F        8       0.00000000       0.00000000       0.00000000
Fe       8.11758585       2.34334519       0.00000000  F        8       0.00000000       0.00000000       0.00000000
Fe      14.20577523       5.85836297       0.00000000  F        8       0.00000000       0.00000000       0.00000000
Fe       6.08818939       5.85836297       0.00000000  F        8       0.00000000       0.00000000       0.00000000
Fe      10.14698231       5.85836297       0.00000000  F        8       0.00000000       0.00000000       0.00000000
Fe      16.23517169       9.37338075       0.00000000  F        8       0.00000000       0.00000000       0.00000000
Fe       8.11758585       9.37338075       0.00000000  F        8       0.00000000       0.00000000       0.00000000
Fe      12.17637877       9.37338075       0.00000000  F        8       0.00000000       0.00000000       0.00000000
Fe       0.00000000       0.00000000       0.82849764  F        7       0.00000000       0.00000000       0.00000000
Fe       4.05879292       0.00000000       0.82849764  F        7       0.00000000       0.00000000       0.00000000
Fe       8.11758585       0.00000000       0.82849764  F        7       0.00000000       0.00000000       0.00000000
Fe       2.02939646       3.51501778       0.82849764  F        7       0.00000000       0.00000000       0.00000000
Fe       6.08818939       3.51501778       0.82849764  F        7       0.00000000       0.00000000       0.00000000
Fe      10.14698231       3.51501778       0.82849764  F        7       0.00000000       0.00000000       0.00000000
Fe       4.05879292       7.03003556       0.82849764  F        7       0.00000000       0.00000000       0.00000000
Fe       8.11758585       7.03003556       0.82849764  F        7       0.00000000       0.00000000       0.00000000
Fe      12.17637877       7.03003556       0.82849764  F        7       0.00000000       0.00000000       0.00000000
Fe       2.02939646       1.17167259       1.65699527  F        6       0.00000000       0.00000000       0.00000000
Fe       6.08818939       1.17167259       1.65699527  F        6       0.00000000       0.00000000       0.00000000
Fe      10.14698231       1.17167259       1.65699527  F        6       0.00000000       0.00000000       0.00000000
Fe       4.05879292       4.68669037       1.65699527  F        6       0.00000000       0.00000000       0.00000000
Fe       8.11758585       4.68669037       1.65699527  F        6       0.00000000       0.00000000       0.00000000
Fe      12.17637877       4.68669037       1.65699527  F        6       0.00000000       0.00000000       0.00000000
Fe       6.08818939       8.20170816       1.65699527  F        6       0.00000000       0.00000000       0.00000000
Fe      10.14698231       8.20170816       1.65699527  F        6       0.00000000       0.00000000       0.00000000
Fe      14.20577523       8.20170816       1.65699527  F        6       0.00000000       0.00000000       0.00000000
Fe      12.34429400       2.49304531       2.19472701  T        5       1.05905755       0.31335270      -0.53319864
Fe       3.91821742       2.50603363       2.23111089  T        5       0.22732217       0.96334054       1.22791169
Fe       8.13108304       2.37540721       2.14742768  T        5       0.64137249      -0.23169228       1.39357191
Fe      14.25865804       5.98651589       2.17221064  T        5       2.61834691      -1.24800712      -1.99821067
Fe       6.07371571       5.57148818       2.25201450  T        5      -0.94413278      -1.75551251       0.85422183
Fe      10.15679424       5.50618573       2.21017632  T        5       0.73536984      -4.81801706      -1.09613876
Fe      16.31526649       9.42507531       2.33276009  T        5       1.76768431      -0.14314857       1.12065894
Fe       8.05301485       9.30392887       2.26328510  T        5      -3.12756103       0.90901492       1.81792947
Fe      12.07619088       9.36763438       2.27805962  T        5      -2.73923290      -2.93991440      -1.54590998
Fe       0.17232612       0.24196181       3.05115563  T        4       0.72637427       0.33809024      -1.02940804
Fe       3.93576150       0.25460740       3.02996220  T        4       1.66707673       0.94297445      -2.00220630
Fe       8.11874624       0.17198696       2.98982840  T        4       0.02847540       0.11454273      -0.10039237
Fe      14.19248461       3.90157840       3.10775350  T        4      -0.71318527       2.23916327       3.22627103
Fe       6.10201989       3.11604109       3.15529447  T        4      -0.33521439      -1.76385144       1.20144144
Fe      10.08580113       3.25763716       3.15979519  T        4      -1.87050943       4.87755530       1.05164602
Fe       4.30668853       7.03781708       3.06150975  T        4      -1.76283968      -0.68397534      -0.45057482
Fe       8.07097507       6.84463216       3.01737369  T        4      -2.26273637      -2.13441229      -2.12559937
Fe      11.92247432       6.98020772       3.04752781  T        4       1.50549904      -3.56959380      -1.10281395
Fe       2.02162609       1.55397376       3.94213024  T        3      -0.34463575       2.07560717       0.57503700
Fe       6.04416675       0.82979119       3.97561518  T        3      -1.01152014      -0.21275795      -1.07498115
Fe      10.20632918       0.79835185       4.01498038  T        3       1.74925776      -1.71968187       0.83050931
Fe       4.23879560       4.70000429       3.94579108  T        3      -2.12118144       0.39440776      -0.02498797
Fe       8.20136170       4.71724622       3.88597938  T        3       4.02779172       1.81187302      -0.39281429
Fe      11.95773958       4.71577640       3.97098044  T        3       0.33027899       1.23691070       1.21721659
Fe       6.32139615       8.44327936       3.98008481  T        3       1.23136194       1.05819541       2.66720758
Fe       9.95950836       8.43445669       3.93280871  T        3       1.07814896       0.68257959       0.35015332
Fe      14.23717371       7.88299847       3.95545898  T        3       1.53500611       0.02352536       1.76166648
Fe      11.99570013       2.20015603       4.45615878  T        2       0.89840888      -3.37282203      -0.84035885
Fe       4.23014897       2.22166555       4.50045806  T        2      -1.38658171      -2.36112450       1.38541919
Fe       8.15556980       2.24716144       4.54240245  T        2       1.85087757       1.44434664       0.84194396
Fe      14.23981638       5.51120529       4.63024289  T        2       1.69134250      -2.12651951      -0.09470264
Fe       6.18062359       6.06689730       4.49353180  T        2      -1.37184951      -2.28328145       1.45021808
Fe      10.01398578       6.09283484       4.49447496  T        2      -0.63735098      -0.92880577       1.41822641
Fe      16.22809568       8.97464828       4.61596479  T        2       1.01800312       0.20648829       0.82394127
Fe       8.17091744       9.91795848       4.48173453  T        2       2.69031700       2.31478730       0.28933770
Fe      12.22633871       8.98726208       4.55056284  T        2       1.07649164       0.85323390      -2.45313094
Fe      17.91363138      10.26783434       5.16679439  T        1      -0.36009572      -1.20018382      -1.87306123
Fe      10.51746208      10.33015792       5.19385416  T        1       1.39704195       1.82744416      -0.70142393
Fe      14.23068247       9.96073839       5.10972407  T        1       1.25054155      -0.16901934       3.75930259
Fe       2.04311881       3.36695624       5.26399852  T        1       0.69778919      -0.19513047       2.80240407
Fe       6.23321043       4.02191060       5.30750846  T        1       0.34536203       3.01949289       3.01672964
Fe       9.99742865       3.92004968       5.18905122  T        1      -0.26403616      -1.84605665      -2.63266509
Fe       3.89237906       6.73863528       5.25279078  T        1       4.89159542       1.77487395       2.25378058
Fe       8.14901412       7.62606735       5.18296040  T        1       1.59165329      -1.12343559       0.10264685
Fe      12.44604199       6.74288828       5.24108220  T        1       0.29796643       2.01550496       1.60765709
N        7.53769903       3.21978506       6.32614015  T        0       1.26272902       0.11565536       0.11147446
N        8.81320590       3.27718802       6.29938823  T        0      -0.07187164       0.66304910      -0.02848665
74
Lattice="12.176378772032349 0.0 0.0 6.088189386016174 10.545053342681582 0.0 0.0 0.0 20.0" Properties=species:S:1:pos:R:3:move_mask:L:1:tags:I:1:momenta:R:3 pbc="T T F"
Fe      12.17637877       2.34334519       0.00000000  F        8       0.00000000       0.00000000       0.00000000
Fe       4.05879292       2.34334519       0.00000000  F        8       0.00000000       0.00000000       0.00000000
Fe       8.11758585       2.34334519       0.00000000  F        8       0.00000000       0.00000000       0.00000000
Fe      14.20577523       5.85836297       0.00000000  F        8       0.00000000       0.00000000       0.00000000
Fe       6.08818939       5.85836297       0.00000000  F        8       0.00000000       0.00000000       0.00000000
Fe      10.14698231       5.85836297       0.00000000  F        8       0.00000000       0.00000000       0.00000000
Fe      16.23517169       9.37338075       0.00000000  F        8       0.00000000       0.00000000       0.00000000
Fe       8.11758585       9.37338075       0.00000000  F        8       0.00000000       0.00000000       0.00000000
Fe      12.17637877       9.37338075       0.00000000  F        8       0.00000000       0.00000000       0.00000000
Fe       0.00000000       0.00000000       0.82849764  F        7       0.00000000       0.00000000       0.00000000
Fe       4.05879292       0.00000000       0.82849764  F        7       0.00000000       0.00000000       0.00000000
Fe       8.11758585       0.00000000       0.82849764  F        7       0.00000000       0.00000000       0.00000000
Fe       2.02939646       3.51501778       0.82849764  F        7       0.00000000       0.00000000       0.00000000
Fe       6.08818939       3.51501778       0.82849764  F        7       0.00000000       0.00000000       0.00000000
Fe      10.14698231       3.51501778       0.82849764  F        7       0.00000000       0.00000000       0.00000000
Fe       4.05879292       7.03003556       0.82849764  F        7       0.00000000       0.00000000       0.00000000
Fe       8.11758585       7.03003556       0.82849764  F        7       0.00000000       0.00000000       0.00000000
Fe      12.17637877       7.03003556       0.82849764  F        7       0.00000000       0.00000000       0.00000000
Fe       2.02939646       1.17167259       1.65699527  F        6       0.00000000       0.00000000       0.00000000
Fe       6.08818939       1.17167259       1.65699527  F        6       0.00000000       0.00000000       0.00000000
Fe      10.14698231       1.17167259       1.65699527  F        6       0.00000000       0.00000000       0.00000000
Fe       4.05879292       4.68669037       1.65699527  F        6       0.00000000       0.00000000       0.00000000
Fe       8.11758585       4.68669037       1.65699527  F        6       0.00000000       0.00000000       0.00000000
Fe      12.17637877       4.68669037       1.65699527  F        6       0.00000000       0.00000000       0.00000000
Fe       6.08818939       8.20170816       1.65699527  F        6       0.00000000       0.00000000       0.00000000
Fe      10.14698231       8.20170816       1.65699527  F        6       0.00000000       0.00000000       0.00000000
Fe      14.20577523       8.20170816       1.65699527  F        6       0.00000000       0.00000000       0.00000000
Fe      12.34522084       2.49332317       2.19426143  T        5       1.05021438       0.31913977      -0.52631797
Fe       3.91841500       2.50688197       2.23218764  T        5       0.22227622       0.96748244       1.22259459
Fe       8.13164400       2.37520293       2.14864942  T        5       0.63523162      -0.23327301       1.38688381
Fe      14.26095429       5.98542619       2.17045827  T        5       2.60755249      -1.23179538      -1.98993376
Fe       6.07288855       5.56994838       2.25276417  T        5      -0.93830199      -1.74886832       0.85191624
Fe      10.15743968       5.50197029       2.20922229  T        5       0.73357258      -4.77515782      -1.07479089
Fe      16.31681612       9.42494906       2.33374151  T        5       1.75900243      -0.14420357       1.11283743
Fe       8.05027600       9.30472383       2.26487809  T        5      -3.10545779       0.90011585       1.80740579
Fe      12.07379042       9.36505801       2.27670478  T        5      -2.72377660      -2.92345614      -1.53747391
Fe       0.17296366       0.24225688       3.05025078  T        4       0.72458489       0.33337805      -1.02996815
Fe       3.93722024       0.25543173       3.02820866  T        4       1.65261602       0.93294586      -1.98846564
Fe       8.11876957       0.17208271       2.98974773  T        4       0.02455597       0.10315302      -0.08293709
Fe      14.19185575       3.90353349       3.11057273  T        4      -0.71822087       2.20988775       3.18941554
Fe       6.10172680       3.11449952       3.15635542  T        4      -0.33177838      -1.74430583       1.21337528
Fe      10.08416759       3.26189899       3.16070303  T        4      -1.84689074       4.82102287       1.01370713
Fe       4.30514499       7.03721796       3.06111725  T        4      -1.74998451      -0.67949220      -0.44259703
Fe       8.06899306       6.84276810       3.01551470  T        4      -2.24794708      -2.10757884      -2.10501294
Fe      11.92379436       6.97707609       3.04656551  T        4       1.49874402      -3.55753591      -1.08703856
Fe       2.02132615       1.55579248       3.94263256  T        3      -0.33786129       2.06345466       0.56805852
Fe       6.04328679       0.82960472       3.97467180  T        3      -0.99079888      -0.21158372      -1.07201686
Fe      10.20785487       0.79684657       4.01570565  T        3       1.72260005      -1.70593965       0.81997597
Fe       4.23693887       4.70034732       3.94577159  T        3      -2.10422228       0.38613833      -0.01921206
Fe       8.20488690       4.71883312       3.88563782  T        3       3.99463398       1.79962961      -0.38443869
Fe      11.95803287       4.71686181       3.97205015  T        3       0.33730976       1.23331476       1.21740945
Fe       6.32248095       8.44420035       3.98242056  T        3       1.23771391       1.03754198       2.64849334
Fe       9.96045191       8.43505200       3.93311375  T        3       1.06915545       0.67215223       0.34403077
Fe      14.23851877       7.88301725       3.95700261  T        3       1.52608632       0.01909835       1.75136948
Fe      11.99648677       2.19720221       4.45542152  T        2       0.89180554      -3.34937348      -0.83750574
Fe       4.22893260       2.21959574       4.50167453  T        2      -1.38172863      -2.34938805       1.38317544
Fe       8.15719125       2.24842736       4.54314243  T        2       1.83921141       1.43641065       0.84171501
Fe      14.24129985       5.50935308       4.63016873  T        2       1.68479780      -2.08827950      -0.07361236
Fe       6.17941932       6.06489863       4.49480258  T        2      -1.36896279      -2.26521155       1.44187907
Fe      10.01342791       6.09202823       4.49571348  T        2      -0.63220929      -0.90653582       1.40031059
Fe      16.22898375       8.97482617       4.61668798  T        2       1.00286348       0.19820105       0.82194845
Fe       8.17327975       9.91998744       4.48198904  T        2       2.68608095       2.30279466       0.28995296
Fe      12.22728575       8.98800871       4.54840972  T        2       1.07896453       0.84593204      -2.44715121
Fe      17.91332073      10.26678505       5.16516206  T        1      -0.34658948      -1.18768936      -1.84140535
Fe      10.51868644      10.33176036       5.19323961  T        1       1.38937722       1.81942312      -0.69716453
Fe      14.23178029       9.96059113       5.11301548  T        1       1.24799893      -0.16608901       3.73129058
Fe       2.04373186       3.36678458       5.26646017  T        1       0.69745233      -0.19558601       2.80009978
Fe       6.23351895       4.02455445       5.31015135  T        1       0.35671578       2.99737850       2.99788795
Fe       9.99720876       3.91843623       5.18675297  T        1      -0.23575269      -1.82576235      -2.59709119
Fe       3.89667040       6.74019098       5.25476531  T        1       4.87500637       1.76567774       2.23988584
Fe       8.15041209       7.62508112       5.18304310  T        1       1.59001086      -1.12112597       0.08531368
Fe      12.44630684       6.74465673       5.24248626  T        1       0.30492786       2.00930876       1.58755111
N        7.54219537       3.22019825       6.32651571  T        0       1.29999558       0.12023223       0.10331379
N        8.81281995       3.27948082       6.29931275  T        0      -0.14486632       0.64579843      -0.01432613
74
Lattice="12.176378772032349 0.0 0.0 6.088189386016174 10.545053342681582 0.0 0.0 0.0 20.0" Properties=species:S:1:pos:R:3:move_mask:L:1:tags:I:1:momenta:R:3 pbc="T T F"
Fe      12.17637877       2.34334519       0.00000000  F        8       0.00000000       0.00000000       0.00000000
Fe       4.05879292       2.34334519       0.00000000  F        8       0.00000000       0.00000000       0.00000000
Fe       8.11758585       2.34334519       0.00000000  F        8       0.00000000       0.00000000       0.00000000
Fe      14.20577523       5.85836297       0.00000000  F        8       0.00000000       0.00000000       0.00000000
Fe       6.08818939       5.85836297       0.00000000  F        8       0.00000000       0.00000000       0.00000000
Fe      10.14698231       5.85836297       0.00000000  F        8       0.00000000       0.00000000       0.00000000
Fe      16.23517169       9.37338075       0.00000000  F        8       0.00000000       0.00000000       0.00000000
Fe       8.11758585       9.37338075       0.00000000  F        8       0.00000000       0.00000000       0.00000000
Fe      12.17637877       9.37338075       0.00000000  F        8       0.00000000       0.00000000       0.00000000
Fe       0.00000000       0.00000000       0.82849764  F        7       0.00000000       0.00000000       0.00000000
Fe       4.05879292       0.00000000       0.82849764  F        7       0.00000000       0.00000000       0.00000000
Fe       8.11758585       0.00000000       0.82849764  F        7       0.00000000       0.00000000       0.00000000
Fe       2.02939646       3.51501778       0.82849764  F        7       0.00000000       0.00000000       0.00000000
Fe       6.08818939       3.51501778       0.82849764  F        7       0.00000000       0.00000000       0.00000000
Fe      10.14698231       3.51501778       0.82849764  F        7       0.00000000       0.00000000       0.00000000
Fe       4.05879292       7.03003556       0.82849764  F        7       0.00000000       0.00000000       0.00000000
Fe       8.11758585       7.03003556       0.82849764  F        7       0.00000000       0.00000000       0.00000000
Fe      12.17637877       7.03003556       0.82849764  F        7       0.00000000       0.00000000       0.00000000
Fe       2.02939646       1.17167259       1.65699527  F        6       0.00000000       0.00000000       0.00000000
Fe       6.08818939       1.17167259       1.65699527  F        6       0.00000000       0.00000000       0.00000000
Fe      10.14698231       1.17167259       1.65699527  F        6       0.00000000       0.00000000       0.00000000
Fe       4.05879292       4.68669037       1.65699527  F        6       0.00000000       0.00000000       0.00000000
Fe       8.11758585       4.68669037       1.65699527  F        6       0.00000000       0.00000000       0.00000000
Fe      12.17637877       4.68669037       1.65699527  F        6       0.00000000       0.00000000       0.00000000
Fe       6.08818939       8.20170816       1.65699527  F        6       0.00000000       0.00000000       0.00000000
Fe      10.14698231       8.20170816       1.65699527  F        6       0.00000000       0.00000000       0.00000000
Fe      14.20577523       8.20170816       1.65699527  F        6       0.00000000       0.00000000       0.00000000
Fe      12.34613852       2.49360582       2.19380262  T        5       1.03966250       0.32468480      -0.51853312
Fe       3.91860781       2.50773285       2.23325817  T        5       0.21677107       0.97047062       1.21545044
Fe       8.13219871       2.37499751       2.14986351  T        5       0.62802709      -0.23460438       1.37809309
Fe      14.26323775       5.98435245       2.16871566  T        5       2.59285933      -1.21339077      -1.97873988
Fe       6.07206775       5.56841659       2.25351075  T        5      -0.93095878      -1.73968286       0.84838838
Fe      10.15808264       5.49779898       2.20828863  T        5       0.73071888      -4.72418623      -1.05128241
Fe      16.31835588       9.42482204       2.33471459  T        5       1.74765600      -0.14512720       1.10320563
Fe       8.04756065       9.30550977       2.26645950  T        5      -3.07837156       0.88971582       1.79406490
Fe      12.07140703       9.36249983       2.27535931  T        5      -2.70415506      -2.90253623      -1.52673869
Fe       0.17359873       0.24254733       3.04934666  T        4       0.72174618       0.32801508      -1.02917711
Fe       3.93866404       0.25624596       3.02646980  T        4       1.63538798       0.92126987      -1.97155353
Fe       8.11878937       0.17216813       2.98968274  T        4       0.02046878       0.09120826      -0.06483252
Fe      14.19122318       3.90545969       3.11335516  T        4      -0.72258667       2.17647963       3.14693730
Fe       6.10143718       3.11297752       3.15742556  T        4      -0.32777503      -1.72173649       1.22402891
Fe      10.08255738       3.26610446       3.16157559  T        4      -1.81996830       4.75593693       0.97276136
Fe       4.30361498       7.03662367       3.06073240  T        4      -1.73444761      -0.67393809      -0.43374954
Fe       8.06702694       6.84093056       3.01367660  T        4      -2.22968586      -2.07695882      -2.08097765
Fe      11.92510661       6.97395952       3.04561861  T        4       1.48982366      -3.54024558      -1.06927355
Fe       2.02103269       1.55759787       3.94312794  T        3      -0.33037757       2.04812152       0.56003301
Fe       6.04242658       0.82941958       3.97373237  T        3      -0.96794840      -0.20999062      -1.06747556
Fe      10.20935463       0.79535565       4.01642053  T        3       1.69260772      -1.68934685       0.80800481
Fe       4.23509989       4.70068247       3.94575733  T        3      -2.08366428       0.37699415      -0.01313333
Fe       8.20837759       4.72040696       3.88530418  T        3       3.95477904       1.78464131      -0.37533064
Fe      11.95833201       4.71794251       3.97311861  T        3       0.34405175       1.22786901       1.21607788
Fe       6.32356998       8.44510162       3.98473643  T        3       1.24271393       1.01472161       2.62563301
Fe       9.96138615       8.43563721       3.93341294  T        3       1.05846275       0.66050014       0.33729504
Fe      14.23985402       7.88303202       3.95853496  T        3       1.51479309       0.01444006       1.73839906
Fe      11.99726644       2.19427343       4.45468784  T        2       0.88378020      -3.32048115      -0.83333986
Fe       4.22772220       2.21753925       4.50288737  T        2      -1.37490413      -2.33405176       1.37904355
Fe       8.15880006       2.24968425       4.54388077  T        2       1.82465828       1.42578361       0.83934578
Fe      14.24277544       5.50753759       4.63011360  T        2       1.67570024      -2.04582401      -0.05150765
Fe       6.17821924       6.06291884       4.49606421  T        2      -1.36418641      -2.24342947       1.43136398
Fe      10.01287542       6.09124266       4.49693436  T        2      -0.62599250      -0.88216148       1.38005138
Fe      16.22985704       8.97499639       4.61740840  T        2       0.98574647       0.18927512       0.81877066
Fe       8.17563508       9.92200295       4.48224378  T        2       2.67812240       2.28737430       0.29022848
Fe      12.22823373       8.98874782       4.54626484  T        2       1.08012757       0.83726939      -2.43774011
Fe      17.91302265      10.26574837       5.16356028  T        1      -0.33198129      -1.17312013      -1.80606521
Fe      10.51990228      10.33335343       5.19262971  T        1       1.37956986       1.80863758      -0.69178342
Fe      14.23287437       9.96044668       5.11627744  T        1       1.24373989      -0.16287993       3.69742035
Fe       2.04434377       3.36661272       5.26891642  T        1       0.69618297      -0.19584936       2.79400524
Fe       6.23383694       4.02717499       5.31277373  T        1       0.36739568       2.97057425       2.97419874
Fe       9.99701459       3.91684304       5.18448987  T        1      -0.20583489      -1.80248318      -2.55623327
Fe       3.90094118       6.74173639       5.25672476  T        1       4.85156006       1.75389047       2.22254798
Fe       8.15180670       7.62409828       5.18311024  T        1       1.58620693      -1.11726310       0.06733868
Fe      12.44657754       6.74641729       5.24387046  T        1       0.31168078       2.00030529       1.56464618
N        7.54680208       3.22062698       6.32686359  T        0       1.32706071       0.12465988       0.09586910
N        8.81219149       3.28171014       6.29928792  T        0      -0.20998578       0.62775531       0.00037076
74
Lattice="12.176378772032349 0.0 0.0 6.088189386016174 10.545053342681582 0.0 0.0 0.0 20.0" Properties=species:S:1:pos:R:3:move_mask:L:1:tags:I:1:momenta:R:3 pbc="T T F"
Fe      12.17637877       2.34334519       0.00000000  F        8       0.00000000       0.00000000       0.00000000
Fe       4.05879292       2.34334519       0.00000000  F        8       0.00000000       0.00000000       0.00000000
Fe       8.11758585       2.34334519       0.00000000  F        8       0.00000000       0.00000000       0.00000000
Fe      14.20577523       5.85836297       0.00000000  F        8       0.00000000       0.00000000       0.00000000
Fe       6.08818939       5.85836297       0.00000000  F        8       0.00000000       0.00000000       0.00000000
Fe      10.14698231       5.85836297       0.00000000  F        8       0.00000000       0.00000000       0.00000000
Fe      16.23517169       9.37338075       0.00000000  F        8       0.00000000       0.00000000       0.00000000
Fe       8.11758585       9.37338075       0.00000000  F        8       0.00000000       0.00000000       0.00000000
Fe      12.17637877       9.37338075       0.00000000  F        8       0.00000000       0.00000000       0.00000000
Fe       0.00000000       0.00000000       0.82849764  F        7       0.00000000       0.00000000       0.00000000
Fe       4.05879292       0.00000000       0.82849764  F        7       0.00000000       0.00000000       0.00000000
Fe       8.11758585       0.00000000       0.82849764  F        7       0.00000000       0.00000000       0.00000000
Fe       2.02939646       3.51501778       0.82849764  F        7       0.00000000       0.00000000       0.00000000
Fe       6.08818939       3.51501778       0.82849764  F        7       0.00000000       0.00000000       0.00000000
Fe      10.14698231       3.51501778       0.82849764  F        7       0.00000000       0.00000000       0.00000000
Fe       4.05879292       7.03003556       0.82849764  F        7       0.00000000       0.00000000       0.00000000
Fe       8.11758585       7.03003556       0.82849764  F        7       0.00000000       0.00000000       0.00000000
Fe      12.17637877       7.03003556       0.82849764  F        7       0.00000000       0.00000000       0.00000000
Fe       2.02939646       1.17167259       1.65699527  F        6       0.00000000       0.00000000       0.00000000
Fe       6.08818939       1.17167259       1.65699527  F        6       0.00000000       0.00000000       0.00000000
Fe      10.14698231       1.17167259       1.65699527  F        6       0.00000000       0.00000000       0.00000000
Fe       4.05879292       4.68669037       1.65699527  F        6       0.00000000       0.00000000       0.00000000
Fe       8.11758585       4.68669037       1.65699527  F        6       0.00000000       0.00000000       0.00000000
Fe      12.17637877       4.68669037       1.65699527  F        6       0.00000000       0.00000000       0.00000000
Fe       6.08818939       8.20170816       1.65699527  F        6       0.00000000       0.00000000       0.00000000
Fe      10.14698231       8.20170816       1.65699527  F        6       0.00000000       0.00000000       0.00000000
Fe      14.20577523       8.20170816       1.65699527  F        6       0.00000000       0.00000000       0.00000000
Fe      12.34705004       2.49389443       2.19334912  T        5       1.03252047       0.33155457      -0.51240867
Fe       3.91879639       2.50858943       2.23432612  T        5       0.21188853       0.97703908       1.21244802
Fe       8.13274896       2.37479016       2.15107406  T        5       0.62285538      -0.23682831       1.37396940
Fe      14.26551621       5.98329133       2.16697684  T        5       2.58699389      -1.19879231      -1.97434269
Fe       6.07125061       5.56688755       2.25425684  T        5      -0.92667715      -1.73649502       0.84779795
Fe      10.15872532       5.49365847       2.20737265  T        5       0.73038950      -4.68835647      -1.03083816
Fe      16.31989098       9.42469372       2.33568251  T        5       1.74223009      -0.14662872       1.09718824
Fe       8.04485986       9.30628922       2.26803460  T        5      -3.06144389       0.88220014       1.78672410
Fe      12.06903268       9.35995123       2.27401861  T        5      -2.69365873      -2.89142175      -1.52120925
Fe       0.17423351       0.24283400       3.04844003  T        4       0.72139441       0.32362142      -1.03206850
Fe       3.94009757       0.25705263       3.02473987  T        4       1.62344511       0.91248970      -1.96116706
Fe       8.11880558       0.17224318       2.98963366  T        4       0.01632902       0.07919557      -0.04646396
Fe      14.19058441       3.90736282       3.11610950  T        4      -0.72980855       2.14968917       3.11437335
Fe       6.10115011       3.11147027       3.15850899  T        4      -0.32482113      -1.70464075       1.23934551
Fe      10.08096550       3.27026667       3.16241452  T        4      -1.79873045       4.70576567       0.93369250
Fe       4.30209337       7.03603222       3.06035410  T        4      -1.72477002      -0.67062764      -0.42618445
Fe       8.06507011       6.83911386       3.01185339  T        4      -2.21892396      -2.05281211      -2.06375747
Fe      11.92641559       6.97084732       3.04468421  T        4       1.48605812      -3.53508855      -1.05481114
Fe       2.02074488       1.55939598       3.94361789  T        3      -0.32382431       2.03967876       0.55372740
Fe       6.04158376       0.82923526       3.97279366  T        3      -0.94777413      -0.20900505      -1.06659020
Fe      10.21083288       0.79387430       4.01712727  T        3       1.66765518      -1.67821640       0.79858963
Fe       4.23327283       4.70101061       3.94574849  T        3      -2.06975766       0.36884597      -0.00683453
Fe       8.21184501       4.72197305       3.88497745  T        3       3.92768801       1.77569217      -0.36735657
Fe      11.95863820       4.71902215       3.97418974  T        3       0.35215938       1.22659066       1.21917830
Fe       6.32466740       8.44598567       3.98704014  T        3       1.25242552       0.99477455       2.61154689
Fe       9.96231418       8.43621410       3.93370719  T        3       1.05128679       0.65089611       0.33162100
Fe      14.24118392       7.88304265       3.96006119  T        3       1.50857187       0.00963726       1.73130262
Fe      11.99804171       2.19136010       4.45395532  T        2       0.87868141      -3.30247416      -0.83194192
Fe       4.22651357       2.21548916       4.50410085  T        2      -1.37285830      -2.32657988       1.37978528
Fe       8.16040158       2.25093591       4.54461919  T        2       1.81619342       1.41944456       0.83888690
Fe      14.24424811       5.50575362       4.63007811  T        2       1.67227097      -2.00930025      -0.02870848
Fe       6.17701914       6.06095150       4.49732095  T        2      -1.36420783      -2.22897424       1.42570865
Fe      10.01232653       6.09047613       4.49814156  T        2      -0.62177999      -0.86007401       1.36427788
Fe      16.23071809       8.97515919       4.61812854  T        2       0.97152783       0.18066185       0.81842474
Fe       8.17799169       9.92401188       4.48249968  T        2       2.67956441       2.27976873       0.29158371
Fe      12.22918615       8.98948182       4.54412072  T        2       1.08525998       0.83137153      -2.43685099
Fe      17.91273664      10.26472104       5.16198443  T        1      -0.31793502      -1.16225979      -1.77599226
Fe      10.52111368      10.33494251       5.19202247  T        1       1.37439782       1.80396576      -0.68867819
Fe      14.23396855       9.96030456       5.11952079  T        1       1.24386338      -0.16020453       3.67589430
Fe       2.04495673       3.36644000       5.27137599  T        1       0.69739114      -0.19687600       2.79779808
Fe       6.23416535       4.02978093       5.31538420  T        1       0.37912313       2.95370338       2.96027304
Fe       9.99684661       3.91526491       5.18225549  T        1      -0.17540863      -1.78514593      -2.52267237
Fe       3.90520632       6.74327680       5.25867570  T        1       4.84507595       1.74813246       2.21269648
Fe       8.15320289       7.62311538       5.18316158  T        1       1.58801145      -1.11732686       0.04911807
Fe      12.44685522       6.74817610       5.24523913  T        1       0.31972380       1.99831072       1.54667325
N        7.55150428       3.22107270       6.32718821  T        0       1.34938712       0.12947588       0.08973609
N        8.81134696       3.28388432       6.29931535  T        0      -0.26703207       0.61214873       0.01549847
74
Lattice="12.176378772032349 0.0 0.0 6.088189386016174 10.545053342681582 0.0 0.0 0.0 20.0" Properties=species:S:1:pos:R:3:move_mask:L:1:tags:I:1:momenta:R:3 pbc="T T F"
Fe      12.17637877       2.34334519       0.00000000  F        8       0.00000000       0.00000000       0.00000000
Fe       4.05879292       2.34334519       0.00000000  F        8       0.00000000       0.00000000       0.00000000
Fe       8.11758585       2.34334519       0.00000000  F        8       0.00000000       0.00000000       0.00000000
Fe      14.20577523       5.85836297       0.00000000  F        8       0.00000000       0.00000000       0.00000000
Fe       6.08818939       5.85836297       0.00000000  F        8       0.00000000       0.00000000       0.00000000
Fe      10.14698231       5.85836297       0.00000000  F        8       0.00000000       0.00000000       0.00000000
Fe      16.23517169       9.37338075       0.00000000  F        8       0.00000000       0.00000000       0.00000000
Fe       8.11758585       9.37338075       0.00000000  F        8       0.00000000       0.00000000       0.00000000
Fe      12.17637877       9.37338075       0.00000000  F        8       0.00000000       0.00000000       0.00000000
Fe       0.00000000       0.00000000       0.82849764  F        7       0.00000000       0.00000000       0.00000000
Fe       4.05879292       0.00000000       0.82849764  F        7       0.00000000       0.00000000       0.00000000
Fe       8.11758585       0.00000000       0.82849764  F        7       0.00000000       0.00000000       0.00000000
Fe       2.02939646       3.51501778       0.82849764  F        7       0.00000000       0.00000000       0.00000000
Fe       6.08818939       3.51501778       0.82849764  F        7       0.00000000       0.00000000       0.00000000
Fe      10.14698231       3.51501778       0.82849764  F        7       0.00000000       0.00000000       0.00000000
Fe       4.05879292       7.03003556       0.82849764  F        7       0.00000000       0.00000000       0.00000000
Fe       8.11758585       7.03003556       0.82849764  F        7       0.00000000       0.00000000       0.00000000
Fe      12.17637877       7.03003556       0.82849764  F        7       0.00000000       0.00000000       0.00000000
Fe       2.02939646       1.17167259       1.65699527  F        6       0.00000000       0.00000000       0.00000000
Fe       6.08818939       1.17167259       1.65699527  F        6       0.00000000       0.00000000       0.00000000
Fe      10.14698231       1.17167259       1.65699527  F        6       0.00000000       0.00000000       0.00000000
Fe       4.05879292       4.68669037       1.65699527  F        6       0.00000000       0.00000000       0.00000000
Fe       8.11758585       4.68669037       1.65699527  F        6       0.00000000       0.00000000       0.00000000
Fe      12.17637877       4.68669037       1.65699527  F        6       0.00000000       0.00000000       0.00000000
Fe       6.08818939       8.20170816       1.65699527  F        6       0.00000000       0.00000000       0.00000000
Fe      10.14698231       8.20170816       1.65699527  F        6       0.00000000       0.00000000       0.00000000
Fe      14.20577523       8.20170816       1.65699527  F        6       0.00000000       0.00000000       0.00000000
Fe      12.34795982       2.49419066       2.19289877  T        5       1.03040821       0.34032742      -0.50873491
Fe       3.91898157       2.50945629       2.23539685  T        5       0.20794214       0.98880757       1.21552779
Fe       8.13329739       2.37457976       2.15228711  T        5       0.62068995      -0.24034096       1.37670660
Fe      14.26780105       5.98223786       2.16523304  T        5       2.59409461      -1.18984527      -1.97990293
Fe       6.07043315       5.56535352       2.25500621  T        5      -0.92692354      -1.74209000       0.85151038
Fe      10.15937100       5.48952901       2.20647030  T        5       0.73376081      -4.67498774      -1.01499472
Fe      16.32142906       9.42456339       2.33664997  T        5       1.74550428      -0.14895695       1.09651702
Fe       8.04216045       9.30706592       2.26961117  T        5      -3.05950673       0.87894470       1.78822126
Fe      12.06665558       9.35739954       2.27267599  T        5      -2.69657145      -2.89471383      -1.52331037
Fe       0.17487122       0.24311818       3.04752616  T        4       0.72468999       0.32068914      -1.04032561
Fe       3.94152770       0.25785553       3.02301042  T        4       1.61932883       0.90802060      -1.96040605
Fe       8.11881817       0.17230783       2.98960078  T        4       0.01213706       0.06716529      -0.02779428
Fe      14.18993585       3.90925161       3.11884872  T        4      -0.74112011       2.13280925       3.09654798
Fe       6.10086422       3.10997063       3.15961168  T        4      -0.32342231      -1.69566324       1.26142103
Fe      10.07938453       3.27440514       3.16322257  T        4      -1.78594228       4.67777429       0.89774312
Fe       4.30057260       7.03544072       3.05998064  T        4      -1.72368112      -0.67062353      -0.42054232
Fe       8.06311289       6.83730953       3.01003626  T        4      -2.21918144      -2.03829740      -2.05658118
Fe      11.92772792       6.96772384       3.04375799  T        4       1.48982859      -3.54773751      -1.04526466
Fe       2.02046149       1.56119574       3.94410468  T        3      -0.31868077       2.04137060       0.54999573
Fe       6.04075476       0.82905091       3.97185097  T        3      -0.93167079      -0.20895235      -1.07107714
Fe      10.21229627       0.79239538       4.01782919  T        3       1.65027013      -1.67518310       0.79296132
Fe       4.23144897       4.70133310       3.94574528  T        3      -2.06574700       0.36223312      -0.00028405
Fe       8.21530580       4.72353918       3.88465618  T        3       3.91951629       1.77559838      -0.36105684
Fe      11.95895319       4.72010614       3.97526917  T        3       0.36225054       1.23144722       1.22870581
Fe       6.32577919       8.44685634       3.98934304  T        3       1.26893907       0.97917917       2.61036648
Fe       9.96324056       8.43678535       3.93399790  T        3       1.04928304       0.64433260       0.32751004
Fe      14.24251505       7.88304902       3.96158887  T        3       1.50981864       0.00467442       1.73283391
Fe      11.99881638       2.18844806       4.45322035  T        2       0.87789525      -3.30056398      -0.83463808
Fe       4.22530056       2.21343531       4.50532122  T        2      -1.37779959      -2.33068031       1.38763862
Fe       8.16200371       2.25218806       4.54536052  T        2       1.81669903       1.41961910       0.84163397
Fe      14.24572522       5.50399330       4.63006296  T        2       1.67718553      -1.98171691      -0.00510522
Fe       6.17581286       6.05898707       4.49857907  T        2      -1.37123249      -2.22534662       1.42718040
Fe      10.01177863       6.08972554       4.49934087  T        2      -0.62054635      -0.84151358       1.35510326
Fe      16.23157075       8.97531506       4.61885205  T        2       0.96168201       0.17259276       0.82223283
Fe       8.18036166       9.92602432       4.48275811  T        2       2.69474564       2.28361644       0.29450020
Fe      12.23014806       8.99021431       4.54196639  T        2       1.09615015       0.82954498      -2.44841497
Fe      17.91246183      10.26369821       5.16042754  T        1      -0.30486386      -1.15691389      -1.75386185
Fe      10.52232663      10.33653551       5.19141492  T        1       1.37604663       1.80828849      -0.68893952
Fe      14.23506846       9.96016409       5.12276149  T        1       1.25038303      -0.15830956       3.67251736
Fe       2.04557392       3.36626545       5.27385156  T        1       0.70221237      -0.19899031       2.81601676
Fe       6.23450569       4.03238514       5.31799547  T        1       0.39255169       2.95143273       2.96079090
Fe       9.99670518       3.91369416       5.18004003  T        1      -0.14457815      -1.77655420      -2.50020892
Fe       3.90948759       6.74481999       5.26062782  T        1       4.86335567       1.75119486       2.21384278
Fe       8.15460785       7.62212738       5.18319688  T        1       1.59800244      -1.12312553       0.03061931
Fe      12.44714152       6.74994218       5.24659870  T        1       0.32962319       2.00654476       1.53601655
N        7.55629193       3.22153754       6.32749468  T        0       1.36833090       0.13485818       0.08511716
N        8.81031353       3.28601520       6.29939691  T        0      -0.31577124       0.59996755       0.03112230
74
Lattice="12.176378772032349 0.0 0.0 6.088189386016174 10.545053342681582 0.0 0.0 0.0 20.0" Properties=species:S:1:pos:R:3:move_mask:L:1:tags:I:1:momenta:R:3 pbc="T T F"
Fe      12.17637877       2.34334519       0.00000000  F        8       0.00000000       0.00000000       0.00000000
Fe       4.05879292       2.34334519       0.00000000  F        8       0.00000000       0.00000000       0.00000000
Fe       8.11758585       2.34334519       0.00000000  F        8       0.00000000       0.00000000       0.00000000
Fe      14.20577523       5.85836297       0.00000000  F        8       0.00000000       0.00000000       0.00000000
Fe       6.08818939       5.85836297       0.00000000  F        8       0.00000000       0.00000000       0.00000000
Fe      10.14698231       5.85836297       0.00000000  F        8       0.00000000       0.00000000       0.00000000
Fe      16.23517169       9.37338075       0.00000000  F        8       0.00000000       0.00000000       0.00000000
Fe       8.11758585       9.37338075       0.00000000  F        8       0.00000000       0.00000000       0.00000000
Fe      12.17637877       9.37338075       0.00000000  F        8       0.00000000       0.00000000       0.00000000
Fe       0.00000000       0.00000000       0.82849764  F        7       0.00000000       0.00000000       0.00000000
Fe       4.05879292       0.00000000       0.82849764  F        7       0.00000000       0.00000000       0.00000000
Fe       8.11758585       0.00000000       0.82849764  F        7       0.00000000       0.00000000       0.00000000
Fe       2.02939646       3.51501778       0.82849764  F        7       0.00000000       0.00000000       0.00000000
Fe       6.08818939       3.51501778       0.82849764  F        7       0.00000000       0.00000000       0.00000000
Fe      10.14698231       3.51501778       0.82849764  F        7       0.00000000       0.00000000       0.00000000
Fe       4.05879292       7.03003556       0.82849764  F        7       0.00000000       0.00000000       0.00000000
Fe       8.11758585       7.03003556       0.82849764  F        7       0.00000000       0.00000000       0.00000000
Fe      12.17637877       7.03003556       0.82849764  F        7       0.00000000       0.00000000       0.00000000
Fe       2.02939646       1.17167259       1.65699527  F        6       0.00000000       0.00000000       0.00000000
Fe       6.08818939       1.17167259       1.65699527  F        6       0.00000000       0.00000000       0.00000000
Fe      10.14698231       1.17167259       1.65699527  F        6       0.00000000       0.00000000       0.00000000
Fe       4.05879292       4.68669037       1.65699527  F        6       0.00000000       0.00000000       0.00000000
Fe       8.11758585       4.68669037       1.65699527  F        6       0.00000000       0.00000000       0.00000000
Fe      12.17637877       4.68669037       1.65699527  F        6       0.00000000       0.00000000       0.00000000
Fe       6.08818939       8.20170816       1.65699527  F        6       0.00000000       0.00000000       0.00000000
Fe      10.14698231       8.20170816       1.65699527  F        6       0.00000000       0.00000000       0.00000000
Fe      14.20577523       8.20170816       1.65699527  F        6       0.00000000       0.00000000       0.00000000
Fe      12.34886023       2.49449230       2.19245539  T        5       1.01961117       0.34656511      -0.50071735
Fe       3.91916170       2.51032654       2.23646152  T        5       0.20213271       0.99275026       1.20856847
Fe       8.13383937       2.37436794       2.15349261  T        5       0.61326208      -0.24198189       1.36803773
Fe      14.27007343       5.98120105       2.16349861  T        5       2.57975662      -1.17065447      -1.96916475
Fe       6.06962222       5.56382710       2.25575274  T        5      -0.91938009      -1.73337372       0.84824663
Fe      10.16001437       5.48544560       2.20558954  T        5       0.73111434      -4.62180243      -0.99011379
Fe      16.32295742       9.42443204       2.33760884  T        5       1.73431586      -0.15015720       1.08661243
Fe       8.03948501       9.30783332       2.27117609  T        5      -3.03188110       0.86823750       1.77480708
Fe      12.06429543       9.35486589       2.27134251  T        5      -2.67708843      -2.87398028      -1.51282308
Fe       0.17550662       0.24339738       3.04661242  T        4       0.72203227       0.31492542      -1.04020184
Fe       3.94294235       0.25864781       3.02129589  T        4       1.60147720       0.89575163      -1.94321137
Fe       8.11882690       0.17236118       2.98958483  T        4       0.00769149       0.05410687      -0.00827838
Fe      14.18928244       3.91110968       3.12154942  T        4      -0.74679155       2.09732820       3.05214476
Fe       6.10058193       3.10849138       3.16072502  T        4      -0.31926706      -1.67218502       1.27370310
Fe      10.07782801       3.27848444       3.16399165  T        4      -1.75774381       4.60951597       0.85262024
Fe       4.29906526       7.03485409       3.05961530  T        4      -1.70827132      -0.66501479      -0.41118100
Fe       8.06117152       6.83553304       3.00824046  T        4      -2.20097709      -2.00618636      -2.03205647
Fe      11.92903287       6.96461477       3.04284792  T        4       1.48137898      -3.53116781      -1.02665345
Fe       2.02018503       1.56298220       3.94458411  T        3      -0.31066095       2.02608977       0.54149304
Fe       6.03994703       0.82886818       3.97091203  T        3      -0.90709487      -0.20705002      -1.06674650
Fe      10.21373202       0.79093139       4.01852032  T        3       1.61834857      -1.65795289       0.78052973
Fe       4.22964379       4.70164697       3.94574799  T        3      -2.04413490       0.35227452       0.00658779
Fe       8.21873070       4.72509237       3.88434316  T        3       3.87808531       1.76076888      -0.35156934
Fe      11.95927459       4.72118552       3.97634829  T        3       0.36960680       1.22611690       1.22843118
Fe       6.32689664       8.44770587       3.99162595  T        3       1.27555829       0.95477189       2.58739644
Fe       9.96415753       8.43734604       3.93428255  T        3       1.03849226       0.63218659       0.32057261
Fe      14.24383633       7.88305087       3.96310537  T        3       1.49848155      -0.00055895       1.71998390
Fe      11.99958397       2.18556177       4.45248906  T        2       0.86974743      -3.27086601      -0.83035587
Fe       4.22409309       2.21139470       4.50653861  T        2      -1.37147111      -2.31542084       1.38424552
Fe       8.16359310       2.25342985       4.54609775  T        2       1.80204144       1.40742119       0.83638082
Fe      14.24719454       5.50227220       4.63006914  T        2       1.66820138      -1.93646979       0.01960924
Fe       6.17461021       6.05704208       4.49982818  T        2      -1.36710884      -2.20293262       1.41682958
Fe      10.01123637       6.08899779       4.50052217  T        2      -0.61403003      -0.81511097       1.33444199
Fe      16.23240754       8.97546239       4.61957302  T        2       0.94333106       0.16269149       0.81930881
Fe       8.18272573       9.92802367       4.48301705  T        2       2.68800541       2.26861464       0.29509470
Fe      12.23111183       8.99093914       4.53981942  T        2       1.09834046       0.82075051      -2.44001052
Fe      17.91220106      10.26268861       5.15890330  T        1      -0.28857961      -1.14165455      -1.71615275
Fe      10.52353107      10.33811925       5.19081216  T        1       1.36624609       1.79761645      -0.68341313
Fe      14.23616518       9.96002645       5.12597255  T        1       1.24675037      -0.15507793       3.63846017
Fe       2.04619036       3.36609042       5.27632308  T        1       0.70136350      -0.19956865       2.81141134
Fe       6.23485498       4.03496592       5.32058563  T        1       0.40256584       2.92452333       2.93640343
Fe       9.99659262       3.91214391       5.17786320  T        1      -0.11114144      -1.75304785      -2.45534351
Fe       3.91375011       6.74635325       5.26256491  T        1       4.84196778       1.73984098       2.19658064
Fe       8.15601021       7.62114231       5.18321537  T        1       1.59504441      -1.11979430       0.01125959
Fe      12.44743429       6.75170114       5.24793756  T        1       0.33709381       1.99842848       1.51216386
N        7.56108824       3.22201727       6.32778438  T        0       1.36492050       0.13900089       0.08092575
N        8.80913526       3.28808657       6.29953334  T        0      -0.35144431       0.58322228       0.04692344
74
Lattice="12.176378772032349 0.0 0.0 6.088189386016174 10.545053342681582 0.0 0.0 0.0 20.0" Properties=species:S:1:pos:R:3:move_mask:L:1:tags:I:1:momenta:R:3 pbc="T T F"
Fe      12.17637877       2.34334519       0.00000000  F        8       0.00000000       0.00000000       0.00000000
Fe       4.05879292       2.34334519       0.00000000  F        8       0.00000000       0.00000000       0.00000000
Fe       8.11758585       2.34334519       0.00000000  F        8       0.00000000       0.00000000       0.00000000
Fe      14.20577523       5.85836297       0.00000000  F        8       0.00000000       0.00000000       0.00000000
Fe       6.08818939       5.85836297       0.00000000  F        8       0.00000000       0.00000000       0.00000000
Fe      10.14698231       5.85836297       0.00000000  F        8       0.00000000       0.00000000       0.00000000
Fe      16.23517169       9.37338075       0.00000000  F        8       0.00000000       0.00000000       0.00000000
Fe       8.11758585       9.37338075       0.00000000  F        8       0.00000000       0.00000000       0.00000000
Fe      12.17637877       9.37338075       0.00000000  F        8       0.00000000       0.00000000       0.00000000
Fe       0.00000000       0.00000000       0.82849764  F        7       0.00000000       0.00000000       0.00000000
Fe       4.05879292       0.00000000       0.82849764  F        7       0.00000000       0.00000000       0.00000000
Fe       8.11758585       0.00000000       0.82849764  F        7       0.00000000       0.00000000       0.00000000
Fe       2.02939646       3.51501778       0.82849764  F        7       0.00000000       0.00000000       0.00000000
Fe       6.08818939       3.51501778       0.82849764  F        7       0.00000000       0.00000000       0.00000000
Fe      10.14698231       3.51501778       0.82849764  F        7       0.00000000       0.00000000       0.00000000
Fe       4.05879292       7.03003556       0.82849764  F        7       0.00000000       0.00000000       0.00000000
Fe       8.11758585       7.03003556       0.82849764  F        7       0.00000000       0.00000000       0.00000000
Fe      12.17637877       7.03003556       0.82849764  F        7       0.00000000       0.00000000       0.00000000
Fe       2.02939646       1.17167259       1.65699527  F        6       0.00000000       0.00000000       0.00000000
Fe       6.08818939       1.17167259       1.65699527  F        6       0.00000000       0.00000000       0.00000000
Fe      10.14698231       1.17167259       1.65699527  F        6       0.00000000       0.00000000       0.00000000
Fe       4.05879292       4.68669037       1.65699527  F        6       0.00000000       0.00000000       0.00000000
Fe       8.11758585       4.68669037       1.65699527  F        6       0.00000000       0.00000000       0.00000000
Fe      12.17637877       4.68669037       1.65699527  F        6       0.00000000       0.00000000       0.00000000
Fe       6.08818939       8.20170816       1.65699527  F        6       0.00000000       0.00000000       0.00000000
Fe      10.14698231       8.20170816       1.65699527  F        6       0.00000000       0.00000000       0.00000000
Fe      14.20577523       8.20170816       1.65699527  F        6       0.00000000       0.00000000       0.00000000
Fe      12.34975416       2.49480056       2.19201759  T        5       1.01211180       0.35417384      -0.49428831
Fe       3.91933729       2.51120335       2.23752372  T        5       0.19689906       1.00029311       1.20567833
Fe       8.13437662       2.37415391       2.15469461  T        5       0.60779568      -0.24452427       1.36394495
Fe      14.27234097       5.98017771       2.16176766  T        5       2.57408061      -1.15509536      -1.96510202
Fe       6.06881520       5.56230309       2.25649898  T        5      -0.91481214      -1.73055903       0.84788107
Fe      10.16065763       5.48139545       2.20472787  T        5       0.73095650      -4.58316693      -0.96807627
Fe      16.32448115       9.42429914       2.33856221  T        5       1.72892945      -0.15195013       1.08021674
Fe       8.03682488       9.30859386       2.27273452  T        5      -3.01412192       0.86030773       1.76725026
Fe      12.06194438       9.35234184       2.27001369  T        5      -2.66652584      -2.86283945      -1.50743846
Fe       0.17614187       0.24367239       3.04569559  T        4       0.72182102       0.31006967      -1.04373828
Fe       3.94434602       0.25943190       3.01959071  T        4       1.58872360       0.88625557      -1.93236335
Fe       8.11883171       0.17240305       2.98958621  T        4       0.00315623       0.04086317       0.01165648
Fe      14.18862162       3.91294254       3.12421996  T        4      -0.75538223       2.06811228       3.01724219
Fe       6.10030236       3.10702788       3.16185318  T        4      -0.31612050      -1.65395668       1.29072656
Fe      10.07629121       3.28251707       3.16472303  T        4      -1.73495079       4.55547648       0.80893480
Fe       4.29756634       7.03427041       3.05925704  T        4      -1.69857981      -0.66159400      -0.40301744
Fe       8.05923956       6.83377900       3.00646020  T        4      -2.19010039      -1.98023799      -2.01412197
Fe      11.93033489       6.96150961       3.04195126  T        4       1.47800445      -3.52653023      -1.01117569
Fe       2.01991478       1.56476130       3.94505761  T        3      -0.30349344       2.01754977       0.53463045
Fe       6.03915844       0.82868654       3.96997368  T        3      -0.88495027      -0.20572170      -1.06601902
Fe      10.21514428       0.78947768       4.01920279  T        3       1.59115195      -1.64600288       0.77053931
Fe       4.22785165       4.70195304       3.94575687  T        3      -2.02893886       0.34321053       0.01374339
Fe       8.22213054       4.72663782       3.88403748  T        3       3.84896588       1.75183890      -0.34311719
Fe      11.95960364       4.72226389       3.97743099  T        3       0.37838251       1.22487868       1.23258513
Fe       6.32802394       8.44853657       3.99389640  T        3       1.28694413       0.93301245       2.57297711
Fe       9.96506812       8.43789788       3.93456205  T        3       1.03112047       0.62198214       0.31463840
Fe      14.24515211       7.88304803       3.96461574  T        3       1.49209615      -0.00598205       1.71288128
Fe      12.00034698       2.18269192       4.45175907  T        2       0.86444140      -3.25173398      -0.82877095
Fe       4.22288702       2.20936057       4.50775725  T        2      -1.36985910      -2.30785899       1.38569240
Fe       8.16517498       2.25466488       4.54683240  T        2       1.79332918       1.39932811       0.83285729
Fe      14.24866096       5.50058546       4.63009747  T        2       1.66477682      -1.89672922       0.04525813
Fe       6.17340699       6.05511029       4.50107244  T        2      -1.36773252      -2.18760068       1.41123140
Fe      10.01069805       6.08829109       4.50168925  T        2      -0.60944456      -0.79073642       1.31809806
Fe      16.23323085       8.97560137       4.62029389  T        2       0.92769916       0.15300273       0.81918842
Fe       8.18509208       9.93001668       4.48327743  T        2       2.69057481       2.26128134       0.29677530
Fe      12.23208095       8.99165868       4.53767240  T        2       1.10451170       0.81463864      -2.44002648
Fe      17.91195398      10.26168910       5.15740741  T        1      -0.27268486      -1.12994964      -1.68336128
Fe      10.52473098      10.33969900       5.19021224  T        1       1.36097494       1.79293553      -0.68010084
Fe      14.23726252       9.95989118       5.12916454  T        1       1.24746245      -0.15236383       3.61641815
Fe       2.04680820       3.36591424       5.27879915  T        1       0.70297959      -0.20090983       2.81659713
Fe       6.23521414       4.03753178       5.32316302  T        1       0.41363338       2.90728109       2.92150352
Fe       9.99650959       3.91060910       5.17571906  T        1      -0.07696425      -1.73534374      -2.41719322
Fe       3.91800860       6.74788180       5.26449341  T        1       4.83733941       1.73440559       2.18662929
Fe       8.15741485       7.62015674       5.18321669  T        1       1.59765323      -1.12035522      -0.00850411
Fe      12.44773474       6.75345906       5.24925984  T        1       0.34591170       1.99723675       1.49302004
N        7.56586862       3.22251281       6.32806248  T        0       1.35405987       0.14337502       0.07824922
N        8.80784769       3.29010726       6.29972614  T        0      -0.37650829       0.56904482       0.06312384
74
Lattice="12.176378772032349 0.0 0.0 6.088189386016174 10.545053342681582 0.0 0.0 0.0 20.0" Properties=species:S:1:pos:R:3:move_mask:L:1:tags:I:1:momenta:R:3 pbc="T T F"
Fe      12.17637877       2.34334519       0.00000000  F        8       0.00000000       0.00000000       0.00000000
Fe       4.05879292       2.34334519       0.00000000  F        8       0.00000000       0.00000000       0.00000000
Fe       8.11758585       2.34334519       0.00000000  F        8       0.00000000       0.00000000       0.00000000
Fe      14.20577523       5.85836297       0.00000000  F        8       0.00000000       0.00000000       0.00000000
Fe       6.08818939       5.85836297       0.00000000  F        8       0.00000000       0.00000000       0.00000000
Fe      10.14698231       5.85836297       0.00000000  F        8       0.00000000       0.00000000       0.00000000
Fe      16.23517169       9.37338075       0.00000000  F        8       0.00000000       0.00000000       0.00000000
Fe       8.11758585       9.37338075       0.00000000  F        8       0.00000000       0.00000000       0.00000000
Fe      12.17637877       9.37338075       0.00000000  F        8       0.00000000       0.00000000       0.00000000
Fe       0.00000000       0.00000000       0.82849764  F        7       0.00000000       0.00000000       0.00000000
Fe       4.05879292       0.00000000       0.82849764  F        7       0.00000000       0.00000000       0.00000000
Fe       8.11758585       0.00000000       0.82849764  F        7       0.00000000       0.00000000       0.00000000
Fe       2.02939646       3.51501778       0.82849764  F        7       0.00000000       0.00000000       0.00000000
Fe       6.08818939       3.51501778       0.82849764  F        7       0.00000000       0.00000000       0.00000000
Fe      10.14698231       3.51501778       0.82849764  F        7       0.00000000       0.00000000       0.00000000
Fe       4.05879292       7.03003556       0.82849764  F        7       0.00000000       0.00000000       0.00000000
Fe       8.11758585       7.03003556       0.82849764  F        7       0.00000000       0.00000000       0.00000000
Fe      12.17637877       7.03003556       0.82849764  F        7       0.00000000       0.00000000       0.00000000
Fe       2.02939646       1.17167259       1.65699527  F        6       0.00000000       0.00000000       0.00000000
Fe       6.08818939       1.17167259       1.65699527  F        6       0.00000000       0.00000000       0.00000000
Fe      10.14698231       1.17167259       1.65699527  F        6       0.00000000       0.00000000       0.00000000
Fe       4.05879292       4.68669037       1.65699527  F        6       0.00000000       0.00000000       0.00000000
Fe       8.11758585       4.68669037       1.65699527  F        6       0.00000000       0.00000000       0.00000000
Fe      12.17637877       4.68669037       1.65699527  F        6       0.00000000       0.00000000       0.00000000
Fe       6.08818939       8.20170816       1.65699527  F        6       0.00000000       0.00000000       0.00000000
Fe      10.14698231       8.20170816       1.65699527  F        6       0.00000000       0.00000000       0.00000000
Fe      14.20577523       8.20170816       1.65699527  F        6       0.00000000       0.00000000       0.00000000
Fe      12.35064590       2.49511717       2.19158331  T        5       1.00949171       0.36377040      -0.49020494
Fe       3.91950909       2.51209136       2.23858871  T        5       0.19252722       1.01309488       1.20878301
Fe       8.13491170       2.37393652       2.15589903  T        5       0.60523553      -0.24837781       1.36660082
Fe      14.27461489       5.97916311       2.16003157  T        5       2.58117490      -1.14493269      -1.97085322
Fe       6.06800821       5.56077387       2.25724866  T        5      -0.91466129      -1.73641685       0.85177752
Fe      10.16130400       5.47735950       2.20388156  T        5       0.73446265      -4.56619398      -0.95030516
Fe      16.32600778       9.42416395       2.33951467  T        5       1.73209677      -0.15459458       1.07902746
Fe       8.03416719       9.30935116       2.27429406  T        5      -3.01096727       0.85649018       1.76834871
Fe      12.05959087       9.34981497       2.26868293  T        5      -2.66911160      -2.86583457      -1.50955378
Fe       0.17678013       0.24394443       3.04477095  T        4       0.72521483       0.30658846      -1.05263523
Fe       3.94574534       0.26021144       3.01788662  T        4       1.58354230       0.88089809      -1.93090448
Fe       8.11883247       0.17243327       2.98960540  T        4      -0.00149192       0.02741343       0.03215119
Fe      14.18794971       3.91475845       3.12687275  T        4      -0.76817212       2.04830198       2.99648309
Fe       6.10002420       3.10557330       3.16300225  T        4      -0.31447178      -1.64352725       1.31467607
Fe      10.07476703       3.28652168       3.16541885  T        4      -1.72020998       4.52263515       0.76770131
Fe       4.29606845       7.03368684       3.05890426  T        4      -1.69728656      -0.66140607      -0.39664974
Fe       8.05730752       6.83203930       3.00468693  T        4      -2.19001634      -1.96347517      -2.00591345
Fe      11.93164052       6.95839290       3.04106390  T        4       1.48206928      -3.53947299      -1.00036363
Fe       2.01964958       1.56654177       3.94552736  T        3      -0.29761981       2.01895048       0.53022558
Fe       6.03838571       0.82850522       3.96903125  T        3      -0.86651470      -0.20528585      -1.07060818
Fe      10.21653930       0.78802734       4.01987978  T        3       1.57106478      -1.64190614       0.76416819
Fe       4.22606413       4.70225250       3.94577224  T        3      -2.02332553       0.33553349       0.02125107
Fe       8.22552144       4.72818314       3.88373780  T        3       3.83815902       1.75157702      -0.33619178
Fe      11.95994217       4.72334657       3.97852294  T        3       0.38924437       1.22969415       1.24318432
Fe       6.32916720       8.44935198       3.99616546  T        3       1.30524682       0.91526538       2.57116672
Fe       9.96597674       8.43844341       3.93483767  T        3       1.02878540       0.61465815       0.31017885
Fe      14.24646884       7.88304031       3.96612742  T        3       1.49302536      -0.01163869       1.71424341
Fe      12.00110911       2.17982472       4.45102685  T        2       0.86333520      -3.24827792      -0.83120004
Fe       4.22167625       2.20732294       4.50898339  T        2      -1.37516448      -2.31166287       1.39422537
Fe       8.16675708       2.25589869       4.54756716  T        2       1.79339826       1.39753180       0.83235969
Fe      14.25013171       5.49892579       4.63014899  T        2       1.66956903      -1.86529587       0.07208522
Fe       6.17219711       6.05318248       4.50231802  T        2      -1.37531187      -2.18277011       1.41262295
Fe      10.01016113       6.08760269       4.50284769  T        2      -0.60773963      -0.76950247       1.30810071
Fe      16.23404429       8.97573234       4.62101831  T        2       0.91617885       0.14370789       0.82319287
Fe       8.18747272       9.93201326       4.48354065  T        2       2.70680605       2.26521751       0.30003252
Fe      12.23306052       8.99237641       4.53551447  T        2       1.11648559       0.81248486      -2.45239585
Fe      17.91171996      10.26069503       5.15593334  T        1      -0.25750908      -1.12354366      -1.65799096
Fe      10.52593225      10.34128253       5.18961226  T        1       1.36239186       1.79710241      -0.68007383
Fe      14.23836608       9.95975763       5.13235301  T        1       1.25453717      -0.15039944       3.61208295
Fe       2.04743063       3.36573595       5.28129241  T        1       0.70820533      -0.20334416       2.83613823
Fe       6.23558475       4.04009525       5.32574005  T        1       0.42647551       2.90427843       2.92069974
Fe       9.99645683       3.90908224       5.17359854  T        1      -0.04197673      -1.72615193      -2.38936051
Fe       3.92228464       6.74941327       5.26642279  T        1       4.85725099       1.73765275       2.18744959
Fe       8.15882895       7.61916567       5.18320037  T        1       1.60842091      -1.12661948      -0.02880658
Fe      12.44804459       6.75522487       5.25057170  T        1       0.35668936       2.00618440       1.48087043
N        7.57061292       3.22302579       6.32833479  T        0       1.33704358       0.14817194       0.07725643
N        8.80648684       3.29208932       6.29997736  T        0      -0.39085642       0.55835329       0.07987348
74
Lattice="12.176378772032349 0.0 0.0 6.088189386016174 10.545053342681582 0.0 0.0 0.0 20.0" Properties=species:S:1:pos:R:3:move_mask:L:1:tags:I:1:momenta:R:3 pbc="T T F"
Fe      12.17637877       2.34334519       0.00000000  F        8       0.00000000       0.00000000       0.00000000
Fe       4.05879292       2.34334519       0.00000000  F        8       0.00000000       0.00000000       0.00000000
Fe       8.11758585       2.34334519       0.00000000  F        8       0.00000000       0.00000000       0.00000000
Fe      14.20577523       5.85836297       0.00000000  F        8       0.00000000       0.00000000       0.00000000
Fe       6.08818939       5.85836297       0.00000000  F        8       0.00000000       0.00000000       0.00000000
Fe      10.14698231       5.85836297       0.00000000  F        8       0.00000000       0.00000000       0.00000000
Fe      16.23517169       9.37338075       0.00000000  F        8       0.00000000       0.00000000       0.00000000
Fe       8.11758585       9.37338075       0.00000000  F        8       0.00000000       0.00000000       0.00000000
Fe      12.17637877       9.37338075       0.00000000  F        8       0.00000000       0.00000000       0.00000000
Fe       0.00000000       0.00000000       0.82849764  F        7       0.00000000       0.00000000       0.00000000
Fe       4.05879292       0.00000000       0.82849764  F        7       0.00000000       0.00000000       0.00000000
Fe       8.11758585       0.00000000       0.82849764  F        7       0.00000000       0.00000000       0.00000000
Fe       2.02939646       3.51501778       0.82849764  F        7       0.00000000       0.00000000       0.00000000
Fe       6.08818939       3.51501778       0.82849764  F        7       0.00000000       0.00000000       0.00000000
Fe      10.14698231       3.51501778       0.82849764  F        7       0.00000000       0.00000000       0.00000000
Fe       4.05879292       7.03003556       0.82849764  F        7       0.00000000       0.00000000       0.00000000
Fe       8.11758585       7.03003556       0.82849764  F        7       0.00000000       0.00000000       0.00000000
Fe      12.17637877       7.03003556       0.82849764  F        7       0.00000000       0.00000000       0.00000000
Fe       2.02939646       1.17167259       1.65699527  F        6       0.00000000       0.00000000       0.00000000
Fe       6.08818939       1.17167259       1.65699527  F        6       0.00000000       0.00000000       0.00000000
Fe      10.14698231       1.17167259       1.65699527  F        6       0.00000000       0.00000000       0.00000000
Fe       4.05879292       4.68669037       1.65699527  F        6       0.00000000       0.00000000       0.00000000
Fe       8.11758585       4.68669037       1.65699527  F        6       0.00000000       0.00000000       0.00000000
Fe      12.17637877       4.68669037       1.65699527  F        6       0.00000000       0.00000000       0.00000000
Fe       6.08818939       8.20170816       1.65699527  F        6       0.00000000       0.00000000       0.00000000
Fe      10.14698231       8.20170816       1.65699527  F        6       0.00000000       0.00000000       0.00000000
Fe      14.20577523       8.20170816       1.65699527  F        6       0.00000000       0.00000000       0.00000000
Fe      12.35154713       2.49544666       2.19114693  T        5       1.02015060       0.37848546      -0.49252096
Fe       3.91967924       2.51300273       2.23967066  T        5       0.19058299       1.03973900       1.22800580
Fe       8.13545159       2.37371276       2.15712186  T        5       0.61060856      -0.25565381       1.38744067
Fe      14.27692545       5.97814417       2.15826719  T        5       2.62265406      -1.14962623      -2.00292628
Fe       6.06719065       5.55921900       2.25801184  T        5      -0.92655796      -1.76550200       0.86708595
Fe      10.16196213       5.47328534       2.20304001  T        5       0.74779805      -4.60880306      -0.94456121
Fe      16.32755757       9.42402457       2.34047870  T        5       1.75830888      -0.15940961       1.09203760
Fe       8.03147703       9.31011509       2.27587532  T        5      -3.04751489       0.86389577       1.79287342
Fe      12.05720371       9.34725178       2.26733254  T        5      -2.70715190      -2.90692059      -1.53179466
Fe       0.17742994       0.24421693       3.04382598  T        4       0.73829731       0.30700338      -1.07576418
Fe       3.94715858       0.26099648       3.01616119  T        4       1.59909602       0.88697805      -1.95493741
Fe       8.11882906       0.17245174       2.98964331  T        4      -0.00631107       0.01385028       0.05367182
Fe      14.18725726       3.91658057       3.12954207  T        4      -0.79171126       2.05479368       3.01468090
Fe       6.09974382       3.10410878       3.16418820  T        4      -0.31692920      -1.65451340       1.35675952
Fe      10.07323591       3.29054982       3.16608656  T        4      -1.72773229       4.54840051       0.73490563
Fe       4.29455175       7.03309568       3.05855254  T        4      -1.71855359      -0.66997188      -0.39532650
Fe       8.05534983       6.83029163       3.00289745  T        4      -2.21901252      -1.97211944      -2.02410011
Fe      11.93296722       6.95522308       3.04017449  T        4       1.50599138      -3.59966676      -1.00246234
Fe       2.01938617       1.56834720       3.94599936  T        3      -0.29546418       2.04716399       0.53266046
Fe       6.03761940       0.82832193       3.96807215  T        3      -0.85883028      -0.20744647      -1.08949793
Fe      10.21793468       0.78656146       4.02056004  T        3       1.57099670      -1.65932532       0.76773260
Fe       4.22425798       4.70254898       3.94579462  T        3      -2.04412257       0.33196510       0.02936377
Fe       8.22894757       4.72974883       3.88344036  T        3       3.87757974       1.77460548      -0.33352251
Fe      11.96029498       4.72444797       3.97963904  T        3       0.40555099       1.25087198       1.27071781
Fe       6.33034222       8.45016219       3.99846310  T        3       1.34154995       0.90899397       2.60341585
Fe       9.96689537       8.43898959       3.93511296  T        3       1.04005583       0.61527587       0.30974214
Fe      14.24780390       7.88302736       3.96766044  T        3       1.51374108      -0.01768233       1.73839729
Fe      12.00188037       2.17692258       4.45028276  T        2       0.87362374      -3.28757135      -0.84459721
Fe       4.22044456       2.20525478       4.51023356  T        2      -1.39892464      -2.34616590       1.42157338
Fe       8.16836028       2.25714706       4.54831077  T        2       1.81722178       1.41366998       0.84181045
Fe      14.25162631       5.49727247       4.63022550  T        2       1.69655896      -1.85742688       0.10096905
Fe       6.17096427       6.05123343       4.50358143  T        2      -1.40140501      -2.20660510       1.43281044
Fe      10.00961863       6.08692436       4.50401259  T        2      -0.61396706      -0.75761373       1.31528137
Fe      16.23485809       8.97585661       4.62175598  T        2       0.91630015       0.13591020       0.83823699
Fe       8.18989969       9.93403998       4.48381032  T        2       2.75945809       2.29937730       0.30740550
Fe      12.23406396       8.99310175       4.53331665  T        2       1.14370508       0.82105264      -2.49771586
Fe      17.91149662      10.25969355       5.15446262  T        1      -0.24504028      -1.13174962      -1.65363148
Fe      10.52715076      10.34289087       5.18900434  T        1       1.38188315       1.82515733      -0.68900608
Fe      14.23949073       9.95962405       5.13558003  T        1       1.27852218      -0.15042587       3.65557066
Fe       2.04806606       3.36555308       5.28383648  T        1       0.72300705      -0.20859278       2.89389645
Fe       6.23597161       4.04269013       5.32835054  T        1       0.44476425       2.93972707       2.95836426
Fe       9.99643504       3.90754325       5.17147527  T        1      -0.00620479      -1.73981906      -2.39146056
Fe       3.92663567       6.75096808       5.26837859  T        1       4.94246753       1.76412489       2.21731120
Fe       8.16027160       7.61815573       5.18316553  T        1       1.64088300      -1.14805709      -0.05008409
Fe      12.44836826       6.75702229       5.25189004  T        1       0.37251085       2.04211363       1.48795792
N        7.57533660       3.22356206       6.32860956  T        0       1.32401825       0.15460523       0.07864102
N        8.80507993       3.29406112       6.30029175  T        0      -0.39699029       0.55579773       0.09795119
74
Lattice="12.176378772032349 0.0 0.0 6.088189386016174 10.545053342681582 0.0 0.0 0.0 20.0" Properties=species:S:1:pos:R:3:move_mask:L:1:tags:I:1:momenta:R:3 pbc="T T F"
Fe      12.17637877       2.34334519       0.00000000  F        8       0.00000000       0.00000000       0.00000000
Fe       4.05879292       2.34334519       0.00000000  F        8       0.00000000       0.00000000       0.00000000
Fe       8.11758585       2.34334519       0.00000000  F        8       0.00000000       0.00000000       0.00000000
Fe      14.20577523       5.85836297       0.00000000  F        8       0.00000000       0.00000000       0.00000000
Fe       6.08818939       5.85836297       0.00000000  F        8       0.00000000       0.00000000       0.00000000
Fe      10.14698231       5.85836297       0.00000000  F        8       0.00000000       0.00000000       0.00000000
Fe      16.23517169       9.37338075       0.00000000  F        8       0.00000000       0.00000000       0.00000000
Fe       8.11758585       9.37338075       0.00000000  F        8       0.00000000       0.00000000       0.00000000
Fe      12.17637877       9.37338075       0.00000000  F        8       0.00000000       0.00000000       0.00000000
Fe       0.00000000       0.00000000       0.82849764  F        7       0.00000000       0.00000000       0.00000000
Fe       4.05879292       0.00000000       0.82849764  F        7       0.00000000       0.00000000       0.00000000
Fe       8.11758585       0.00000000       0.82849764  F        7       0.00000000       0.00000000       0.00000000
Fe       2.02939646       3.51501778       0.82849764  F        7       0.00000000       0.00000000       0.00000000
Fe       6.08818939       3.51501778       0.82849764  F        7       0.00000000       0.00000000       0.00000000
Fe      10.14698231       3.51501778       0.82849764  F        7       0.00000000       0.00000000       0.00000000
Fe       4.05879292       7.03003556       0.82849764  F        7       0.00000000       0.00000000       0.00000000
Fe       8.11758585       7.03003556       0.82849764  F        7       0.00000000       0.00000000       0.00000000
Fe      12.17637877       7.03003556       0.82849764  F        7       0.00000000       0.00000000       0.00000000
Fe       2.02939646       1.17167259       1.65699527  F        6       0.00000000       0.00000000       0.00000000
Fe       6.08818939       1.17167259       1.65699527  F        6       0.00000000       0.00000000       0.00000000
Fe      10.14698231       1.17167259       1.65699527  F        6       0.00000000       0.00000000       0.00000000
Fe       4.05879292       4.68669037       1.65699527  F        6       0.00000000       0.00000000       0.00000000
Fe       8.11758585       4.68669037       1.65699527  F        6       0.00000000       0.00000000       0.00000000
Fe      12.17637877       4.68669037       1.65699527  F        6       0.00000000       0.00000000       0.00000000
Fe       6.08818939       8.20170816       1.65699527  F        6       0.00000000       0.00000000       0.00000000
Fe      10.14698231       8.20170816       1.65699527  F        6       0.00000000       0.00000000       0.00000000
Fe      14.20577523       8.20170816       1.65699527  F        6       0.00000000       0.00000000       0.00000000
Fe      12.35245167       2.49578713       2.19071150  T        5       1.02376362       0.39106492      -0.49135140
Fe       3.91984644       2.51393180       2.24076240  T        5       0.18716569       1.05993257       1.23905471
Fe       8.13599254       2.37348399       2.15835494  T        5       0.61172327      -0.26138219       1.39899371
Fe      14.27925725       5.97712815       2.15648619  T        5       2.64664127      -1.14608013      -2.02171451
Fe       6.06636811       5.55764875       2.25878349  T        5      -0.93209782      -1.78292796       0.87670035
Fe      10.16262768       5.46920146       2.20220959  T        5       0.75621215      -4.61899306      -0.93161244
Fe      16.32912016       9.42388178       2.34144769  T        5       1.77274607      -0.16330625       1.09753070
Fe       8.02877278       9.31088034       2.27746763  T        5      -3.06317003       0.86526924       1.80525914
Fe      12.05479894       9.34466943       2.26597150  T        5      -2.72697366      -2.92847312      -1.54381445
Fe       0.17808699       0.24448786       3.04286674  T        4       0.74649952       0.30512020      -1.09200714
Fe       3.94857590       0.26178148       3.01442618  T        4       1.60349039       0.88673782      -1.96560909
Fe       8.11882130       0.17245779       2.98970040  T        4      -0.01130240      -0.00047263       0.07570369
Fe      14.18654831       3.91839565       3.13220904  T        4      -0.81064764       2.04624327       3.01142570
Fe       6.09946320       3.10264464       3.16540385  T        4      -0.31715484      -1.65378451       1.39068827
Fe      10.07170877       3.29457281       3.16671971  T        4      -1.72281274       4.54155207       0.69480823
Fe       4.29302644       7.03250092       3.05820449  T        4      -1.72823872      -0.67398714      -0.39102631
Fe       8.05337965       6.82854845       3.00110407  T        4      -2.23304378      -1.96655776      -2.02828367
Fe      11.93430627       6.95202112       3.03928944  T        4       1.51999320      -3.63599708      -0.99727821
Fe       2.01912658       1.57016546       3.94647022  T        3      -0.29099758       2.06159243       0.53123880
Fe       6.03686550       0.82813802       3.96710273  T        3      -0.84433156      -0.20806497      -1.10118591
Fe      10.21932012       0.78509017       4.02123875  T        3       1.55920002      -1.66520121       0.76581853
Fe       4.22244582       4.70284011       3.94582421  T        3      -2.05058353       0.32569921       0.03770597
Fe       8.23238515       4.73132437       3.88314743  T        3       3.88992816       1.78569248      -0.32828994
Fe      11.96066004       4.72556074       3.98077224  T        3       0.41954878       1.26370456       1.29025770
Fe       6.33154187       8.45096099       4.00077377  T        3       1.36973057       0.89566463       2.61799881
Fe       9.96781774       8.43953251       3.93538595  T        3       1.04422663       0.61142496       0.30706211
Fe      14.24914831       7.88300901       3.96920455  T        3       1.52421587      -0.02391819       1.75087428
Fe      12.00265551       2.17400539       4.44953183  T        2       0.87793222      -3.30424096      -0.85224884
Fe       4.21920001       2.20316999       4.51149972  T        2      -1.41352002      -2.36489220       1.43975501
Fe       8.16997374       2.25840103       4.54905725  T        2       1.82872674       1.41960856       0.84444447
Fe      14.25313479       5.49563796       4.63032772  T        2       1.71219048      -1.83538530       0.13065473
Fe       6.16971648       6.04927657       4.50485424  T        2      -1.41840104      -2.21515425       1.44338864
Fe      10.00907434       6.08626164       4.50517587  T        2      -0.61588484      -0.73943671       1.31327257
Fe      16.23566623       8.97597291       4.62250208  T        2       0.90955061       0.12665083       0.84779293
Fe       8.19235724       9.93608339       4.48408479  T        2       2.79419518       2.31822884       0.31288396
Fe      12.23508500       8.99382976       4.53109326  T        2       1.16379830       0.82398780      -2.52674321
Fe      17.91128622      10.25869172       5.15300625  T        1      -0.22998156      -1.13192038      -1.63675888
Fe      10.52837832      10.34451325       5.18839265  T        1       1.39205270       1.84097615      -0.69321565
Fe      14.24062920       9.95949136       5.13882374  T        1       1.29423559      -0.14941079       3.67420174
Fe       2.04871042       3.36536672       5.28641490  T        1       0.73317782      -0.21258059       2.93294908
Fe       6.23637203       4.04529886       5.33097665  T        1       0.45999091       2.95518221       2.97574081
Fe       9.99644585       3.90600259       5.16936541  T        1       0.03141150      -1.74159120      -2.37517732
Fe       3.93103331       6.75253595       5.27034765  T        1       4.99544414       1.77889724       2.23222182
Fe       8.16173348       7.61713349       5.18311171  T        1       1.66276175      -1.16205218      -0.07189033
Fe      12.44870397       6.75883962       5.25320553  T        1       0.38627379       2.06473835       1.48441332
N        7.57995688       3.22411688       6.32888979  T        0       1.28711506       0.15965402       0.08089928
N        8.80368517       3.29601174       6.30066863  T        0      -0.38622438       0.55017205       0.11580870
74
Lattice="12.176378772032349 0.0 0.0 6.088189386016174 10.545053342681582 0.0 0.0 0.0 20.0" Properties=species:S:1:pos:R:3:move_mask:L:1:tags:I:1:momenta:R:3 pbc="T T F"
Fe      12.17637877       2.34334519       0.00000000  F        8       0.00000000       0.00000000       0.00000000
Fe       4.05879292       2.34334519       0.00000000  F        8       0.00000000       0.00000000       0.00000000
Fe       8.11758585       2.34334519       0.00000000  F        8       0.00000000       0.00000000       0.00000000
Fe      14.20577523       5.85836297       0.00000000  F        8       0.00000000       0.00000000       0.00000000
Fe       6.08818939       5.85836297       0.00000000  F        8       0.00000000       0.00000000       0.00000000
Fe      10.14698231       5.85836297       0.00000000  F        8       0.00000000       0.00000000       0.00000000
Fe      16.23517169       9.37338075       0.00000000  F        8       0.00000000       0.00000000       0.00000000
Fe       8.11758585       9.37338075       0.00000000  F        8       0.00000000       0.00000000       0.00000000
Fe      12.17637877       9.37338075       0.00000000  F        8       0.00000000       0.00000000       0.00000000
Fe       0.00000000       0.00000000       0.82849764  F        7       0.00000000       0.00000000       0.00000000
Fe       4.05879292       0.00000000       0.82849764  F        7       0.00000000       0.00000000       0.00000000
Fe       8.11758585       0.00000000       0.82849764  F        7       0.00000000       0.00000000       0.00000000
Fe       2.02939646       3.51501778       0.82849764  F        7       0.00000000       0.00000000       0.00000000
Fe       6.08818939       3.51501778       0.82849764  F        7       0.00000000       0.00000000       0.00000000
Fe      10.14698231       3.51501778       0.82849764  F        7       0.00000000       0.00000000       0.00000000
Fe       4.05879292       7.03003556       0.82849764  F        7       0.00000000       0.00000000       0.00000000
Fe       8.11758585       7.03003556       0.82849764  F        7       0.00000000       0.00000000       0.00000000
Fe      12.17637877       7.03003556       0.82849764  F        7       0.00000000       0.00000000       0.00000000
Fe       2.02939646       1.17167259       1.65699527  F        6       0.00000000       0.00000000       0.00000000
Fe       6.08818939       1.17167259       1.65699527  F        6       0.00000000       0.00000000       0.00000000
Fe      10.14698231       1.17167259       1.65699527  F        6       0.00000000       0.00000000       0.00000000
Fe       4.05879292       4.68669037       1.65699527  F        6       0.00000000       0.00000000       0.00000000
Fe       8.11758585       4.68669037       1.65699527  F        6       0.00000000       0.00000000       0.00000000
Fe      12.17637877       4.68669037       1.65699527  F        6       0.00000000       0.00000000       0.00000000
Fe       6.08818939       8.20170816       1.65699527  F        6       0.00000000       0.00000000       0.00000000
Fe      10.14698231       8.20170816       1.65699527  F        6       0.00000000       0.00000000       0.00000000
Fe      14.20577523       8.20170816       1.65699527  F        6       0.00000000       0.00000000       0.00000000
Fe      12.35334368       2.49613292       2.19028468  T        5       1.00939126       0.39718000      -0.48148755
Fe       3.92000769       2.51486274       2.24184501  T        5       0.18033134       1.06213165       1.22860451
Fe       8.13652507       2.37325408       2.15957687  T        5       0.60205739      -0.26270669       1.38622544
Fe      14.28156989       5.97613298       2.15471940  T        5       2.62465986      -1.12215290      -2.00545976
Fe       6.06555497       5.55609025       2.25955031  T        5      -0.92128746      -1.76949926       0.87116810
Fe      10.16328916       5.46517973       2.20140518  T        5       0.75154854      -4.54745619      -0.90172416
Fe      16.33066846       9.42373799       2.34240469  T        5       1.75635887      -0.16449856       1.08375531
Fe       8.02610165       9.31163350       2.27904327  T        5      -3.02513238       0.85138647       1.78613561
Fe      12.05241830       9.34211277       2.26462339  T        5      -2.69930344      -2.89905532      -1.52903489
Fe       0.17873993       0.24475237       3.04190968  T        4       0.74176799       0.29771437      -1.08952753
Fe       3.94997245       0.26255257       3.01271186  T        4       1.57960379       0.87074509      -1.94186471
Fe       8.11880922       0.17245091       2.98977616  T        4      -0.01627900      -0.01536524       0.09714385
Fe      14.18583470       3.92017140       3.13482665  T        4      -0.81611919       2.00098949       2.95473050
Fe       6.09918726       3.10120665       3.16662864  T        4      -0.31177042      -1.62375714       1.40121407
Fe      10.07021264       3.29851953       3.16730584  T        4      -1.68718705       4.45384337       0.64053418
Fe       4.29151897       7.03191294       3.05786635  T        4      -1.70783532      -0.66623031      -0.37964658
Fe       8.05143119       6.82684063       2.99933814  T        4      -2.20817668      -1.92593941      -1.99683823
Fe      11.93563457       6.94884247       3.03842443  T        4       1.50772630      -3.60929807      -0.97427338
Fe       2.01887551       1.57196497       3.94693160  T        3      -0.28118123       2.04011769       0.52032708
Fe       6.03613773       0.82795681       3.96613975  T        3      -0.81421863      -0.20491457      -1.09380571
Fe      10.22067083       0.78363929       4.02190393  T        3       1.51923466      -1.64173887       0.75030410
Fe       4.22065953       4.70312054       3.94586078  T        3      -2.02080250       0.31335116       0.04576654
Fe       8.23577378       4.73288244       3.88286427  T        3       3.83363851       1.76569729      -0.31705794
Fe      11.96103122       4.72666557       3.98190323  T        3       0.42659441       1.25457529       1.28782517
Fe       6.33274588       8.45173394       4.00305728  T        3       1.37485115       0.86592426       2.58687844
Fe       9.96872782       8.44006254       3.93565181  T        3       1.03013898       0.59665419       0.29891120
Fe      14.25047866       7.88298539       3.97073295  T        3       1.50809513      -0.03000979       1.73288766
Fe      12.00342100       2.17112416       4.44878719  T        2       0.86686351      -3.26290535      -0.84497710
Fe       4.21796405       2.20110477       4.51276011  T        2      -1.40372640      -2.34243394       1.43321878
Fe       8.17156940       2.25963825       4.54979264  T        2       1.80830739       1.40016904       0.83125158
Fe      14.25463094       5.49405166       4.63045478  T        2       1.69803745      -1.77993529       0.15937167
Fe       6.16847520       6.04734618       4.50611435  T        2      -1.41098787      -2.18472839       1.42886185
Fe      10.00853785       6.08562677       4.50631718  T        2      -0.60690997      -0.70733625       1.28814099
Fe      16.23645421       8.97607887       4.62324373  T        2       0.88633966       0.11470004       0.84271823
Fe       8.19480306       9.93810811       4.48435938  T        2       2.78083444       2.29686752       0.31306944
Fe      12.23610624       8.99454772       4.52888261  T        2       1.16412357       0.81248949      -2.51221793
Fe      17.91109304      10.25770721       5.15159036  T        1      -0.21007342      -1.11200909      -1.59018419
Fe      10.52959359      10.34612149       5.18778786  T        1       1.37795715       1.82476247      -0.68526905
Fe      14.24176191       9.95936186       5.14202768  T        1       1.28770611      -0.14578365       3.62865042
Fe       2.04935267       3.36518003       5.28898334  T        1       0.73078613      -0.21299152       2.92157201
Fe       6.23677882       4.04787601       5.33357249  T        1       0.46705694       2.91899353       2.94094833
Fe       9.99649016       3.90448703       5.16730721  T        1       0.07001459      -1.71294383      -2.31540117
Fe       3.93540188       6.75408976       5.27229578  T        1       4.96236136       1.76285657       2.20823984
Fe       8.16318949       7.61611651       5.18303937  T        1       1.65608155      -1.15606109      -0.09316638
Fe      12.44904611       6.76064558       5.25449496  T        1       0.39368621       2.05180208       1.45449267
N        7.58434183       3.22467907       6.32917556  T        0       1.21259995       0.16149330       0.08316372
N        8.80237773       3.29791036       6.30110200  T        0      -0.35400986       0.53577171       0.13192767
74
Lattice="12.176378772032349 0.0 0.0 6.088189386016174 10.545053342681582 0.0 0.0 0.0 20.0" Properties=species:S:1:pos:R:3:move_mask:L:1:tags:I:1:momenta:R:3 pbc="T T F"
Fe      12.17637877       2.34334519       0.00000000  F        8       0.00000000       0.00000000       0.00000000
Fe       4.05879292       2.34334519       0.00000000  F        8       0.00000000       0.00000000       0.00000000
Fe       8.11758585       2.34334519       0.00000000  F        8       0.00000000       0.00000000       0.00000000
Fe      14.20577523       5.85836297       0.00000000  F        8       0.00000000       0.00000000       0.00000000
Fe       6.08818939       5.85836297       0.00000000  F        8       0.00000000       0.00000000       0.00000000
Fe      10.14698231       5.85836297       0.00000000  F        8       0.00000000       0.00000000       0.00000000
Fe      16.23517169       9.37338075       0.00000000  F        8       0.00000000       0.00000000       0.00000000
Fe       8.11758585       9.37338075       0.00000000  F        8       0.00000000       0.00000000       0.00000000
Fe      12.17637877       9.37338075       0.00000000  F        8       0.00000000       0.00000000       0.00000000
Fe       0.00000000       0.00000000       0.82849764  F        7       0.00000000       0.00000000       0.00000000
Fe       4.05879292       0.00000000       0.82849764  F        7       0.00000000       0.00000000       0.00000000
Fe       8.11758585       0.00000000       0.82849764  F        7       0.00000000       0.00000000       0.00000000
Fe       2.02939646       3.51501778       0.82849764  F        7       0.00000000       0.00000000       0.00000000
Fe       6.08818939       3.51501778       0.82849764  F        7       0.00000000       0.00000000       0.00000000
Fe      10.14698231       3.51501778       0.82849764  F        7       0.00000000       0.00000000       0.00000000
Fe       4.05879292       7.03003556       0.82849764  F        7       0.00000000       0.00000000       0.00000000
Fe       8.11758585       7.03003556       0.82849764  F        7       0.00000000       0.00000000       0.00000000
Fe      12.17637877       7.03003556       0.82849764  F        7       0.00000000       0.00000000       0.00000000
Fe       2.02939646       1.17167259       1.65699527  F        6       0.00000000       0.00000000       0.00000000
Fe       6.08818939       1.17167259       1.65699527  F        6       0.00000000       0.00000000       0.00000000
Fe      10.14698231       1.17167259       1.65699527  F        6       0.00000000       0.00000000       0.00000000
Fe       4.05879292       4.68669037       1.65699527  F        6       0.00000000       0.00000000       0.00000000
Fe       8.11758585       4.68669037       1.65699527  F        6       0.00000000       0.00000000       0.00000000
Fe      12.17637877       4.68669037       1.65699527  F        6       0.00000000       0.00000000       0.00000000
Fe       6.08818939       8.20170816       1.65699527  F        6       0.00000000       0.00000000       0.00000000
Fe      10.14698231       8.20170816       1.65699527  F        6       0.00000000       0.00000000       0.00000000
Fe      14.20577523       8.20170816       1.65699527  F        6       0.00000000       0.00000000       0.00000000
Fe      12.35422140       2.49648350       2.18986732  T        5       0.99301870       0.40270970      -0.47066086
Fe       3.92016261       2.51579400       2.24291648  T        5       0.17308543       1.06255433       1.21586974
Fe       8.13704811       2.37302339       2.16078537  T        5       0.59118343      -0.26361200       1.37084870
Fe      14.28385900       5.97516071       2.15297007  T        5       2.59773855      -1.09589562      -1.98549209
Fe       6.06475284       5.55454634       2.26031089  T        5      -0.90863421      -1.75283189       0.86404871
Fe      10.16394535       5.46122853       2.20062862  T        5       0.74549951      -4.46641770      -0.86977480
Fe      16.33219954       9.42359337       2.34334780  T        5       1.73666384      -0.16547102       1.06781559
Fe       8.02346890       9.31237306       2.28059921  T        5      -2.98113069       0.83579123       1.76356893
Fe      12.05006632       9.33958660       2.26329069  T        5      -2.66651473      -2.86416865      -1.51143205
Fe       0.17938752       0.24500983       3.04095650  T        4       0.73564374       0.28960857      -1.08512220
Fe       3.95134538       0.26330813       3.01102157  T        4       1.55249688       0.85291379      -1.91431978
Fe       8.11879276       0.17243085       2.98987072  T        4      -0.02131734      -0.03054958       0.11873284
Fe      14.18511743       3.92190393       3.13738949  T        4      -0.82046623       1.95130316       2.89190547
Fe       6.09891658       3.09979775       3.16786056  T        4      -0.30574536      -1.59038728       1.40946584
Fe      10.06875068       3.30238161       3.16784274  T        4      -1.64797883       4.35663512       0.58379218
Fe       4.29003214       7.03133284       3.05753887  T        4      -1.68425924      -0.65719396      -0.36740766
Fe       8.04950811       6.82517176       2.99760307  T        4      -2.17916025      -1.88122169      -1.96149735
Fe      11.93694973       6.94569304       3.03758127  T        4       1.49275362      -3.57586870      -0.94919697
Fe       2.01863359       1.57374234       3.94738250  T        3      -0.27066873       2.01479069       0.50828786
Fe       6.03543795       0.82777875       3.96518499  T        3      -0.78202339      -0.20124573      -1.08439887
Fe      10.22198375       0.78221176       4.02255423  T        3       1.47579333      -1.61494197       0.73323828
Fe       4.21890281       4.70338950       3.94590445  T        3      -1.98681663       0.30015654       0.05396533
Fe       8.23910656       4.73442012       3.88259154  T        3       3.76946794       1.74240463      -0.30506645
Fe      11.96140797       4.72776036       3.98303015  T        3       0.43299515       1.24304805       1.28326617
Fe       6.33395236       8.45247919       4.00530927  T        3       1.37783153       0.83409202       2.55083062
Fe       9.96962386       8.44057860       3.93591002  T        3       1.01409083       0.58063318       0.29016172
Fe      14.25179241       7.88295640       3.97224278  T        3       1.48907655      -0.03620515       1.71165257
Fe      12.00417536       2.16828463       4.44805036  T        2       0.85410129      -3.21505527      -0.83599112
Fe       4.21673890       2.19906306       4.51401254  T        2      -1.39142539      -2.31550898       1.42418599
Fe       8.17314420       2.26085590       4.55051466  T        2       1.78441729       1.37752903       0.81548965
Fe      14.25611191       5.49251725       4.63060714  T        2       1.68064009      -1.72031318       0.18857408
Fe       6.16724264       6.04544615       4.50735942  T        2      -1.40107203      -2.14989439       1.41165478
Fe      10.00801027       6.08502149       4.50743433  T        2      -0.59666083      -0.67327423       1.26053039
Fe      16.23722022       8.97617401       4.62397959  T        2       0.86107121       0.10223064       0.83612160
Fe       8.19723280       9.94011042       4.48463368  T        2       2.76250612       2.27127906       0.31276082
Fe      12.23712602       8.99525427       4.52668866  T        2       1.16253339       0.79942602      -2.49319002
Fe      17.91091790      10.25674207       5.15021822  T        1      -0.18922321      -1.08976584      -1.53992725
Fe      10.53079425      10.34771255       5.18719118  T        1       1.36122782       1.80507407      -0.67595429
Fe      14.24288690       9.95923576       5.14518575  T        1       1.27892125      -0.14191119       3.57617630
Fe       2.04999169       3.36499329       5.29153721  T        1       0.72712915      -0.21307715       2.90497434
Fe       6.23719091       4.05041665       5.33613293  T        1       0.47289805       2.87719042       2.90033105
Fe       9.99656860       3.90299933       5.16530588  T        1       0.10930510      -1.68117219      -2.24969511
Fe       3.93973368       6.75562671       5.27421930  T        1       4.92052012       1.74361005       2.18007993
Fe       8.16463704       7.61510660       5.18294837  T        1       1.64648409      -1.14803109      -0.11459756
Fe      12.44939421       6.76243698       5.25575565  T        1       0.40053099       2.03523895       1.42155256
N        7.58843318       3.22524575       6.32947112  T        0       1.12168996       0.16250279       0.08660217
N        8.80121058       3.29975688       6.30159083  T        0      -0.30688615       0.52134698       0.14773305
74
Lattice="12.176378772032349 0.0 0.0 6.088189386016174 10.545053342681582 0.0 0.0 0.0 20.0" Properties=species:S:1:pos:R:3:move_mask:L:1:tags:I:1:momenta:R:3 pbc="T T F"
Fe      12.17637877       2.34334519       0.00000000  F        8       0.00000000       0.00000000       0.00000000
Fe       4.05879292       2.34334519       0.00000000  F        8       0.00000000       0.00000000       0.00000000
Fe       8.11758585       2.34334519       0.00000000  F        8       0.00000000       0.00000000       0.00000000
Fe      14.20577523       5.85836297       0.00000000  F        8       0.00000000       0.00000000       0.00000000
Fe       6.08818939       5.85836297       0.00000000  F        8       0.00000000       0.00000000       0.00000000
Fe      10.14698231       5.85836297       0.00000000  F        8       0.00000000       0.00000000       0.00000000
Fe      16.23517169       9.37338075       0.00000000  F        8       0.00000000       0.00000000       0.00000000
Fe       8.11758585       9.37338075       0.00000000  F        8       0.00000000       0.00000000       0.00000000
Fe      12.17637877       9.37338075       0.00000000  F        8       0.00000000       0.00000000       0.00000000
Fe       0.00000000       0.00000000       0.82849764  F        7       0.00000000       0.00000000       0.00000000
Fe       4.05879292       0.00000000       0.82849764  F        7       0.00000000       0.00000000       0.00000000
Fe       8.11758585       0.00000000       0.82849764  F        7       0.00000000       0.00000000       0.00000000
Fe       2.02939646       3.51501778       0.82849764  F        7       0.00000000       0.00000000       0.00000000
Fe       6.08818939       3.51501778       0.82849764  F        7       0.00000000       0.00000000       0.00000000
Fe      10.14698231       3.51501778       0.82849764  F        7       0.00000000       0.00000000       0.00000000
Fe       4.05879292       7.03003556       0.82849764  F        7       0.00000000       0.00000000       0.00000000
Fe       8.11758585       7.03003556       0.82849764  F        7       0.00000000       0.00000000       0.00000000
Fe      12.17637877       7.03003556       0.82849764  F        7       0.00000000       0.00000000       0.00000000
Fe       2.02939646       1.17167259       1.65699527  F        6       0.00000000       0.00000000       0.00000000
Fe       6.08818939       1.17167259       1.65699527  F        6       0.00000000       0.00000000       0.00000000
Fe      10.14698231       1.17167259       1.65699527  F        6       0.00000000       0.00000000       0.00000000
Fe       4.05879292       4.68669037       1.65699527  F        6       0.00000000       0.00000000       0.00000000
Fe       8.11758585       4.68669037       1.65699527  F        6       0.00000000       0.00000000       0.00000000
Fe      12.17637877       4.68669037       1.65699527  F        6       0.00000000       0.00000000       0.00000000
Fe       6.08818939       8.20170816       1.65699527  F        6       0.00000000       0.00000000       0.00000000
Fe      10.14698231       8.20170816       1.65699527  F        6       0.00000000       0.00000000       0.00000000
Fe      14.20577523       8.20170816       1.65699527  F        6       0.00000000       0.00000000       0.00000000
Fe      12.35509605       2.49684357       2.18945411  T        5       0.98938538       0.41357726      -0.46587192
Fe       3.92031313       2.51673782       2.24399065  T        5       0.16801655       1.07689387       1.21886891
Fe       8.13756833       2.37278888       2.16199600  T        5       0.58788121      -0.26798920       1.37318173
Fe      14.28615409       5.97419906       2.15121562  T        5       2.60436537      -1.08361312      -1.99122428
Fe       6.06395151       5.55299704       2.26107509  T        5      -0.90761297      -1.75889246       0.86813858
Fe      10.16460474       5.45729788       2.19987030  T        5       0.74910443      -4.44218027      -0.84875476
Fe      16.33373313       9.42344598       2.34428906  T        5       1.73940097      -0.16866546       1.06555220
Fe       8.02084088       9.31310842       2.28215542  T        5      -2.97538746       0.83089610       1.76370737
Fe      12.04771273       9.33705839       2.26195617  T        5      -2.66813710      -2.86627485      -1.51341115
Fe       0.18003811       0.24526344       3.03999477  T        4       0.73901734       0.28511447      -1.09483482
Fe       3.95271213       0.26405770       3.00933367  T        4       1.54521657       0.84592081      -1.91136965
Fe       8.11877160       0.17239700       2.98998569  T        4      -0.02671083      -0.04641648       0.14212877
Fe      14.18438683       3.92361485       3.13992997  T        4      -0.83579835       1.92622438       2.86594974
Fe       6.09864772       3.09840011       3.16911591  T        4      -0.30362172      -1.57731191       1.43622796
Fe      10.06730447       3.30620765       3.16833605  T        4      -1.62970273       4.31468566       0.53345156
Fe       4.28854677       7.03075319       3.05721799  T        4      -1.68249548      -0.65662681      -0.35978993
Fe       8.04758564       6.82352085       2.99587670  T        4      -2.17831681      -1.86038387      -1.95139248
Fe      11.93826882       6.94253217       3.03674939  T        4       1.49719446      -3.58867443      -0.93617951
Fe       2.01839787       1.57552045       3.94782857  T        3      -0.26350230       2.01548761       0.50268156
Fe       6.03475770       0.82760167       3.96422612  T        3      -0.75943096      -0.20004626      -1.08903015
Fe      10.22327515       0.78078942       4.02319787  T        3       1.45085986      -1.60878436       0.72552422
Fe       4.21715341       4.70365022       3.94595602  T        3      -1.97812373       0.29060624       0.06306142
Fe       8.24242573       4.73595725       3.88232592  T        3       3.75336448       1.74165177      -0.29685729
Fe      11.96179533       4.72885917       3.98416780  T        3       0.44513087       1.24753571       1.29555926
Fe       6.33517733       8.45320586       4.00755871  T        3       1.39901683       0.81262620       2.54769675
Fe       9.97051738       8.44108718       3.93616385  T        3       1.01113482       0.57201025       0.28513936
Fe      14.25310642       7.88292150       3.97375349  T        3       1.48923936      -0.04301130       1.71254894
Fe      12.00492823       2.16545058       4.44731193  T        2       0.85231712      -3.20838714      -0.83767384
Fe       4.21550862       2.19701861       4.51527336  T        2      -1.39722903      -2.31843894       1.43373828
Fe       8.17471835       2.26206916       4.55123173  T        2       1.78351903       1.37217105       0.80935234
Fe      14.25759675       5.49101583       4.63078756  T        2       1.68489833      -1.68219072       0.22092639
Fe       6.16600274       6.04355228       4.50860549  T        2      -1.40939437      -2.14255249       1.41269178
Fe      10.00748493       6.08443865       4.50854163  T        2      -0.59399118      -0.64733835       1.24918502
Fe      16.23797374       8.97625927       4.62471922  T        2       0.84657386       0.09080590       0.84038648
Fe       8.19967804       9.94211621       4.48491131  T        2       2.78009966       2.27512895       0.31658151
Fe      12.23815776       8.99595846       4.52448290  T        2       1.17621151       0.79666603      -2.50657431
Fe      17.91075912      10.25578411       5.14887287  T        1      -0.17031088      -1.08138340      -1.50895662
Fe      10.53199574      10.34930689       5.18659501  T        1       1.36204671       1.80866058      -0.67529560
Fe      14.24401882       9.95911143       5.14833853  T        1       1.28681555      -0.13991003       3.56983677
Fe       2.05063583       3.36480402       5.29410972  T        1       0.73296769      -0.21598193       2.92613285
Fe       6.23761334       4.05295336       5.33869069  T        1       0.48450696       2.87243943       2.89693073
Fe       9.99668305       3.90152028       5.16333719  T        1       0.15069458      -1.67126029      -2.21154847
Fe       3.94408509       6.75716670       5.27614295  T        1       4.94280227       1.74700040       2.18007066
Fe       8.16609502       7.61409059       5.18283714  T        1       1.65833549      -1.15495815      -0.13778170
Fe      12.44975293       6.76423715       5.25700356  T        1       0.41269741       2.04519021       1.40673587
N        7.59223371       3.22582239       6.32978487  T        0       1.03191207       0.16507419       0.09240222
N        8.80021857       3.30157841       6.30214140  T        0      -0.25013792       0.51464539       0.16531286
74
Lattice="12.176378772032349 0.0 0.0 6.088189386016174 10.545053342681582 0.0 0.0 0.0 20.0" Properties=species:S:1:pos:R:3:move_mask:L:1:tags:I:1:momenta:R:3 pbc="T T F"
Fe      12.17637877       2.34334519       0.00000000  F        8       0.00000000       0.00000000       0.00000000
Fe       4.05879292       2.34334519       0.00000000  F        8       0.00000000       0.00000000       0.00000000
Fe       8.11758585       2.34334519       0.00000000  F        8       0.00000000       0.00000000       0.00000000
Fe      14.20577523       5.85836297       0.00000000  F        8       0.00000000       0.00000000       0.00000000
Fe       6.08818939       5.85836297       0.00000000  F        8       0.00000000       0.00000000       0.00000000
Fe      10.14698231       5.85836297       0.00000000  F        8       0.00000000       0.00000000       0.00000000
Fe      16.23517169       9.37338075       0.00000000  F        8       0.00000000       0.00000000       0.00000000
Fe       8.11758585       9.37338075       0.00000000  F        8       0.00000000       0.00000000       0.00000000
Fe      12.17637877       9.37338075       0.00000000  F        8       0.00000000       0.00000000       0.00000000
Fe       0.00000000       0.00000000       0.82849764  F        7       0.00000000       0.00000000       0.00000000
Fe       4.05879292       0.00000000       0.82849764  F        7       0.00000000       0.00000000       0.00000000
Fe       8.11758585       0.00000000       0.82849764  F        7       0.00000000       0.00000000       0.00000000
Fe       2.02939646       3.51501778       0.82849764  F        7       0.00000000       0.00000000       0.00000000
Fe       6.08818939       3.51501778       0.82849764  F        7       0.00000000       0.00000000       0.00000000
Fe      10.14698231       3.51501778       0.82849764  F        7       0.00000000       0.00000000       0.00000000
Fe       4.05879292       7.03003556       0.82849764  F        7       0.00000000       0.00000000       0.00000000
Fe       8.11758585       7.03003556       0.82849764  F        7       0.00000000       0.00000000       0.00000000
Fe      12.17637877       7.03003556       0.82849764  F        7       0.00000000       0.00000000       0.00000000
Fe       2.02939646       1.17167259       1.65699527  F        6       0.00000000       0.00000000       0.00000000
Fe       6.08818939       1.17167259       1.65699527  F        6       0.00000000       0.00000000       0.00000000
Fe      10.14698231       1.17167259       1.65699527  F        6       0.00000000       0.00000000       0.00000000
Fe       4.05879292       4.68669037       1.65699527  F        6       0.00000000       0.00000000       0.00000000
Fe       8.11758585       4.68669037       1.65699527  F        6       0.00000000       0.00000000       0.00000000
Fe      12.17637877       4.68669037       1.65699527  F        6       0.00000000       0.00000000       0.00000000
Fe       6.08818939       8.20170816       1.65699527  F        6       0.00000000       0.00000000       0.00000000
Fe      10.14698231       8.20170816       1.65699527  F        6       0.00000000       0.00000000       0.00000000
Fe      14.20577523       8.20170816       1.65699527  F        6       0.00000000       0.00000000       0.00000000
Fe      12.35596291       2.49721147       2.18904730  T        5       0.98040577       0.42253555      -0.45852805
Fe       3.92045835       2.51768954       2.24506192  T        5       0.16194038       1.08592826       1.21551400
Fe       8.13808290       2.37255168       2.16320243  T        5       0.58137491      -0.27107679       1.36831149
Fe      14.28844317       5.97325335       2.14946514  T        5       2.59734085      -1.06528908      -1.98658428
Fe       6.06315527       5.55145035       2.26183898  T        5      -0.90168905      -1.75584779       0.86775500
Fe      10.16526391       5.45340945       2.19913465  T        5       0.74883207      -4.39331283      -0.82269846
Fe      16.33526121       9.42329649       2.34522338  T        5       1.73300624      -0.17109699       1.05752741
Fe       8.01823165       9.31383559       2.28370367  T        5      -2.95363917       0.82146423       1.75447741
Fe      12.04536990       9.33454141       2.26062679  T        5      -2.65568478      -2.85330017      -1.50750061
Fe       0.18068833       0.24551169       3.03902938  T        4       0.73853081       0.27893045      -1.09899445
Fe       3.95406525       0.26479711       3.00765719  T        4       1.52947202       0.83420414      -1.89817582
Fe       8.11874574       0.17234915       2.99012090  T        4      -0.03211062      -0.06253028       0.16533749
Fe      14.18364626       3.92529445       3.14243410  T        4      -0.84731300       1.89008609       2.82409075
Fe       6.09838215       3.09702139       3.17038860  T        4      -0.29982206      -1.55551248       1.45605809
Fe      10.06588209       3.30997627       3.16878172  T        4      -1.60225789       4.24844148       0.47853531
Fe       4.28707063       7.03017705       3.05690557  T        4      -1.67190279      -0.65257479      -0.35005665
Fe       8.04567386       6.82189713       2.99416825  T        4      -2.16601453      -1.82905920      -1.93078049
Fe      11.93958508       6.93937630       3.03593342  T        4       1.49393648      -3.58277206      -0.91786609
Fe       2.01816978       1.57728998       3.94826731  T        3      -0.25470622       2.00557564       0.49422350
Fe       6.03410121       0.82742663       3.96326809  T        3      -0.73205001      -0.19764722      -1.08801807
Fe      10.22453754       0.77937999       4.02383129  T        3       1.41741094      -1.59385424       0.71376877
Fe       4.21542094       4.70390103       3.94601545  T        3      -1.95853075       0.27917344       0.07213575
Fe       8.24571319       4.73748576       3.88206902  T        3       3.71664501       1.73174213      -0.28680436
Fe      11.96219149       4.72995626       3.98531058  T        3       0.45522693       1.24546489       1.30145659
Fe       6.33641490       8.45390957       4.00979370  T        3       1.41350524       0.78620325       2.53106826
Fe       9.97140365       8.44158545       3.93641192  T        3       1.00281007       0.56016502       0.27853226
Fe      14.25441375       7.88288069       3.97525719  T        3       1.48150265      -0.04981772       1.70445763
Fe      12.00567559       2.16263726       4.44657589  T        2       0.84596501      -3.18437858      -0.83482823
Fe       4.21427951       2.19498217       4.51653619  T        2      -1.39587895      -2.30913363       1.43604607
Fe       8.17628353       2.26327118       4.55193927  T        2       1.77315258       1.35904904       0.79806526
Fe      14.25907765       5.48955627       4.63099601  T        2       1.68027566      -1.63400871       0.25323667
Fe       6.16476184       6.04167485       4.50984603  T        2      -1.41053451      -2.12354105       1.40630343
Fe      10.00696473       6.08388205       4.50963313  T        2      -0.58802506      -0.61709160       1.23110071
Fe      16.23871035       8.97633385       4.62545883  T        2       0.82708359       0.07848361       0.84034042
Fe       8.20212630       9.94411508       4.48519093  T        2       2.78350319       2.26714102       0.31887307
Fe      12.23919638       8.99665655       4.52227661  T        2       1.18411817       0.78965392      -2.50712728
Fe      17.91061812      10.25483863       5.14756217  T        1      -0.14975400      -1.06698130      -1.46904727
Fe      10.53319171      10.35089614       5.18600254  T        1       1.35566448       1.80271915      -0.67099345
Fe      14.24515194       9.95898950       5.15146934  T        1       1.28819029      -0.13718878       3.54455045
Fe       2.05128185       3.36461312       5.29668776  T        1       0.73512320      -0.21784812       2.93236050
Fe       6.23804373       4.05547269       5.34123208  T        1       0.49340702       2.85236026       2.87800325
Fe       9.99683386       3.90005760       5.16141314  T        1       0.19245767      -1.65257295      -2.15974598
Fe       3.94843395       6.75870176       5.27805664  T        1       4.93989594       1.74134488       2.16856557
Fe       8.16755603       7.61307365       5.18270584  T        1       1.66177876      -1.15601510      -0.16079805
Fe      12.45012063       6.76603691       5.25823178  T        1       0.42299052       2.04471807       1.38408162
N        7.59567489       3.22640420       6.33011957  T        0       0.92318965       0.16629182       0.09892357
N        8.79945517       3.30336854       6.30275095  T        0      -0.17873293       0.50608752       0.18208652
74
Lattice="12.176378772032349 0.0 0.0 6.088189386016174 10.545053342681582 0.0 0.0 0.0 20.0" Properties=species:S:1:pos:R:3:move_mask:L:1:tags:I:1:momenta:R:3 pbc="T T F"
Fe      12.17637877       2.34334519       0.00000000  F        8       0.00000000       0.00000000       0.00000000
Fe       4.05879292       2.34334519       0.00000000  F        8       0.00000000       0.00000000       0.00000000
Fe       8.11758585       2.34334519       0.00000000  F        8       0.00000000       0.00000000       0.00000000
Fe      14.20577523       5.85836297       0.00000000  F        8       0.00000000       0.00000000       0.00000000
Fe       6.08818939       5.85836297       0.00000000  F        8       0.00000000       0.00000000       0.00000000
Fe      10.14698231       5.85836297       0.00000000  F        8       0.00000000       0.00000000       0.00000000
Fe      16.23517169       9.37338075       0.00000000  F        8       0.00000000       0.00000000       0.00000000
Fe       8.11758585       9.37338075       0.00000000  F        8       0.00000000       0.00000000       0.00000000
Fe      12.17637877       9.37338075       0.00000000  F        8       0.00000000       0.00000000       0.00000000
Fe       0.00000000       0.00000000       0.82849764  F        7       0.00000000       0.00000000       0.00000000
Fe       4.05879292       0.00000000       0.82849764  F        7       0.00000000       0.00000000       0.00000000
Fe       8.11758585       0.00000000       0.82849764  F        7       0.00000000       0.00000000       0.00000000
Fe       2.02939646       3.51501778       0.82849764  F        7       0.00000000       0.00000000       0.00000000
Fe       6.08818939       3.51501778       0.82849764  F        7       0.00000000       0.00000000       0.00000000
Fe      10.14698231       3.51501778       0.82849764  F        7       0.00000000       0.00000000       0.00000000
Fe       4.05879292       7.03003556       0.82849764  F        7       0.00000000       0.00000000       0.00000000
Fe       8.11758585       7.03003556       0.82849764  F        7       0.00000000       0.00000000       0.00000000
Fe      12.17637877       7.03003556       0.82849764  F        7       0.00000000       0.00000000       0.00000000
Fe       2.02939646       1.17167259       1.65699527  F        6       0.00000000       0.00000000       0.00000000
Fe       6.08818939       1.17167259       1.65699527  F        6       0.00000000       0.00000000       0.00000000
Fe      10.14698231       1.17167259       1.65699527  F        6       0.00000000       0.00000000       0.00000000
Fe       4.05879292       4.68669037       1.65699527  F        6       0.00000000       0.00000000       0.00000000
Fe       8.11758585       4.68669037       1.65699527  F        6       0.00000000       0.00000000       0.00000000
Fe      12.17637877       4.68669037       1.65699527  F        6       0.00000000       0.00000000       0.00000000
Fe       6.08818939       8.20170816       1.65699527  F        6       0.00000000       0.00000000       0.00000000
Fe      10.14698231       8.20170816       1.65699527  F        6       0.00000000       0.00000000       0.00000000
Fe      14.20577523       8.20170816       1.65699527  F        6       0.00000000       0.00000000       0.00000000
Fe      12.35682381       2.49758820       2.18864606  T        5       0.97349684       0.43264268      -0.45213238
Fe       3.92059851       2.51865154       2.24613273  T        5       0.15613103       1.09766995       1.21492056
Fe       8.13859288       2.37231117       2.16440735  T        5       0.57607413      -0.27486777       1.36650888
Fe      14.29073135       5.97232172       2.14771469  T        5       2.59613183      -1.04907610      -1.98645208
Fe       6.06236247       5.54990273       2.26260432  T        5      -0.89765585      -1.75684375       0.86938450
Fe      10.16592439       5.44955561       2.19842047  T        5       0.75027837      -4.35310862      -0.79803118
Fe      16.33678719       9.42314446       2.34615272  T        5       1.73048936      -0.17401914       1.05172180
Fe       8.01563572       9.31455607       2.28524731  T        5      -2.93816683       0.81372876       1.74907672
Fe      12.04303265       9.33203006       2.25929953  T        5      -2.64911914      -2.84669018      -1.50502363
Fe       0.18133962       0.24575499       3.03805803  T        4       0.73970016       0.27320251      -1.10575707
Fe       3.95540750       0.26552780       3.00598854  T        4       1.51684750       0.82411716      -1.88905031
Fe       8.11871502       0.17228680       2.99027706  T        4      -0.03769952      -0.07919316       0.18934340
Fe      14.18289362       3.92694572       3.14490683  T        4      -0.86122552       1.85738668       2.78787186
Fe       6.09811935       3.09565885       3.17168190  T        4      -0.29662438      -1.53683550       1.47961788
Fe      10.06448083       3.31369462       3.16917936  T        4      -1.57790319       4.19030908       0.42320198
Fe       4.28560040       7.02960317       3.05660109  T        4      -1.66508262      -0.64995635      -0.34092571
Fe       8.04376851       6.82029753       2.99247411  T        4      -2.15856527      -1.80123421      -1.91430221
Fe      11.94090156       6.93621830       3.03513184  T        4       1.49417485      -3.58497548      -0.90130732
Fe       2.01794900       1.57905485       3.94869953  T        3      -0.24627382       2.00014159       0.48669373
Fe       6.03346762       0.82725336       3.96230872  T        3      -0.70563089      -0.19554850      -1.08950518
Fe      10.22577304       0.77798059       4.02445574  T        3       1.38638167      -1.58221508       0.70342396
Fe       4.21370192       4.70414220       3.94608314  T        3      -1.94287289       0.26806453       0.08162722
Fe       8.24897553       4.73900907       3.88182049  T        3       3.68743787       1.72571000      -0.27713522
Fe      11.96259757       4.73105404       3.98646134  T        3       0.46658872       1.24615904       1.31061704
Fe       6.33766833       8.45459137       4.01201917  T        3       1.43170372       0.76097458       2.52002915
Fe       9.97228461       8.44207435       3.93665471  T        3       0.99669755       0.54940842       0.27249261
Fe      14.25571725       7.88283370       3.97675723  T        3       1.47701136      -0.05692349       1.70019670
Fe      12.00641906       2.15983879       4.44584072  T        2       0.84142972      -3.16705930      -0.83371259
Fe       4.21304868       2.19294925       4.51780408  T        2      -1.39781917      -2.30493554       1.44181341
Fe       8.17784315       2.26446420       4.55263815  T        2       1.76666784       1.34850258       0.78782265
Fe      14.26055788       5.48813624       4.63123383  T        2       1.67936623      -1.58848300       0.28705933
Fe       6.16351698       6.03981000       4.51108380  T        2      -1.41501498      -2.10890895       1.40305561
Fe      10.00644866       6.08335115       4.51071118  T        2      -0.58321014      -0.58745688       1.21566610
Fe      16.23943129       8.97639758       4.62620014  T        2       0.80898259       0.06597967       0.84226282
Fe       8.20458337       9.94611157       4.48547326  T        2       2.79346924       2.26433396       0.32199503
Fe      12.24024451       8.99735006       4.52006462  T        2       1.19501709       0.78436469      -2.51356854
Fe      17.91049521      10.25390378       5.14628399  T        1      -0.12888309      -1.05467801      -1.43159767
Fe      10.53438481      10.35248380       5.18541253  T        1       1.35227437       1.80077422      -0.66810254
Fe      14.24628897       9.95886966       5.15458504  T        1       1.29265542      -0.13480472       3.52705861
Fe       2.05193133       3.36442010       5.29927738  T        1       0.73906567      -0.22027903       2.94548144
Fe       6.23848287       4.05798004       5.34376255  T        1       0.50323188       2.83844360       2.86527347
Fe       9.99702222       3.89860797       5.15953110  T        1       0.23554937      -1.63766297      -2.11093371
Fe       3.95279060       6.76023545       5.27996459  T        1       4.94873968       1.73971085       2.16188302
Fe       8.16902355       7.61205336       5.18255377  T        1       1.66918939      -1.15982570      -0.18459919
Fe      12.45049836       6.76784053       5.25944271  T        1       0.43446143       2.04910290       1.36416594
N        7.59872016       3.22699078       6.33047992  T        0       0.80486343       0.16742928       0.10670820
N        8.79896277       3.30513424       6.30342077  T        0      -0.09604071       0.49946738       0.19921727
74
Lattice="12.176378772032349 0.0 0.0 6.088189386016174 10.545053342681582 0.0 0.0 0.0 20.0" Properties=species:S:1:pos:R:3:move_mask:L:1:tags:I:1:momenta:R:3 pbc="T T F"
Fe      12.17637877       2.34334519       0.00000000  F        8       0.00000000       0.00000000       0.00000000
Fe       4.05879292       2.34334519       0.00000000  F        8       0.00000000       0.00000000       0.00000000
Fe       8.11758585       2.34334519       0.00000000  F        8       0.00000000       0.00000000       0.00000000
Fe      14.20577523       5.85836297       0.00000000  F        8       0.00000000       0.00000000       0.00000000
Fe       6.08818939       5.85836297       0.00000000  F        8       0.00000000       0.00000000       0.00000000
Fe      10.14698231       5.85836297       0.00000000  F        8       0.00000000       0.00000000       0.00000000
Fe      16.23517169       9.37338075       0.00000000  F        8       0.00000000       0.00000000       0.00000000
Fe       8.11758585       9.37338075       0.00000000  F        8       0.00000000       0.00000000       0.00000000
Fe      12.17637877       9.37338075       0.00000000  F        8       0.00000000       0.00000000       0.00000000
Fe       0.00000000       0.00000000       0.82849764  F        7       0.00000000       0.00000000       0.00000000
Fe       4.05879292       0.00000000       0.82849764  F        7       0.00000000       0.00000000       0.00000000
Fe       8.11758585       0.00000000       0.82849764  F        7       0.00000000       0.00000000       0.00000000
Fe       2.02939646       3.51501778       0.82849764  F        7       0.00000000       0.00000000       0.00000000
Fe       6.08818939       3.51501778       0.82849764  F        7       0.00000000       0.00000000       0.00000000
Fe      10.14698231       3.51501778       0.82849764  F        7       0.00000000       0.00000000       0.00000000
Fe       4.05879292       7.03003556       0.82849764  F        7       0.00000000       0.00000000       0.00000000
Fe       8.11758585       7.03003556       0.82849764  F        7       0.00000000       0.00000000       0.00000000
Fe      12.17637877       7.03003556       0.82849764  F        7       0.00000000       0.00000000       0.00000000
Fe       2.02939646       1.17167259       1.65699527  F        6       0.00000000       0.00000000       0.00000000
Fe       6.08818939       1.17167259       1.65699527  F        6       0.00000000       0.00000000       0.00000000
Fe      10.14698231       1.17167259       1.65699527  F        6       0.00000000       0.00000000       0.00000000
Fe       4.05879292       4.68669037       1.65699527  F        6       0.00000000       0.00000000       0.00000000
Fe       8.11758585       4.68669037       1.65699527  F        6       0.00000000       0.00000000       0.00000000
Fe      12.17637877       4.68669037       1.65699527  F        6       0.00000000       0.00000000       0.00000000
Fe       6.08818939       8.20170816       1.65699527  F        6       0.00000000       0.00000000       0.00000000
Fe      10.14698231       8.20170816       1.65699527  F        6       0.00000000       0.00000000       0.00000000
Fe      14.20577523       8.20170816       1.65699527  F        6       0.00000000       0.00000000       0.00000000
Fe      12.35767998       2.49797457       2.18824982  T        5       0.96800836       0.44366349      -0.44637039
Fe       3.92073374       2.51962563       2.24720482  T        5       0.15046438       1.11146769       1.21631455
Fe       8.13909899       2.37206687       2.16561270  T        5       0.57158819      -0.27920515       1.36689640
Fe      14.29302228       5.97140297       2.14596140  T        5       2.59907483      -1.03424009      -1.98955587
Fe       6.06157197       5.54835160       2.26337241  T        5      -0.89492144      -1.76076650       0.87248189
Fe      10.16658727       5.44573135       2.19772707  T        5       0.75297211      -4.31858982      -0.77414477
Fe      16.33831348       9.42298955       2.34707843  T        5       1.73073706      -0.17733496       1.04743893
Fe       8.01304926       9.31527086       2.28678872  T        5      -2.92702535       0.80713679       1.74636631
Fe      12.04069733       9.32952036       2.25797220  T        5      -2.64672086      -2.84460280      -1.50501324
Fe       0.18199302       0.24599357       3.03707903  T        4       0.74205526       0.26773007      -1.11443975
Fe       3.95674070       0.26625070       3.00432525  T        4       1.50631830       0.81509188      -1.88274653
Fe       8.11867925       0.17220946       2.99045486  T        4      -0.04347767      -0.09643250       0.21412416
Fe      14.18212722       3.92857054       3.14735141  T        4      -0.87705594       1.82680600       2.75537294
Fe       6.09785896       3.09431069       3.17299838  T        4      -0.29382543      -1.52022104       1.50606389
Fe      10.06309895       3.31736722       3.16952817  T        4      -1.55553361       4.13734961       0.36695268
Fe       4.28413372       7.02903065       3.05630424  T        4      -1.66094758      -0.64834795      -0.33214142
Fe       8.04186654       6.81872008       2.99079177  T        4      -2.15456739      -1.77563795      -1.90067163
Fe      11.94222053       6.93305305       3.03434368  T        4       1.49696221      -3.59300570      -0.88585974
Fe       2.01773539       1.58081787       3.94912575  T        3      -0.23801071       1.99789153       0.47974983
Fe       6.03285660       0.82708172       3.96134640  T        3      -0.67960549      -0.19361593      -1.09281043
Fe      10.22698287       0.77658925       4.02507201  T        3       1.35675267      -1.57281282       0.69399464
Fe       4.21199406       4.70437384       3.94615943  T        3      -1.92984782       0.25706218       0.09152037
Fe       8.25221716       4.74052960       3.88158020  T        3       3.66325419       1.72242552      -0.26761033
Fe      11.96301447       4.73215425       3.98762227  T        3       0.47898312       1.24882806       1.32224656
Fe       6.33894016       8.45525179       4.01423858  T        3       1.45278152       0.73634843       2.51293171
Fe       9.97316164       8.44255451       3.93689255  T        3       0.99213949       0.53934693       0.26682351
Fe      14.25701894       7.88278029       3.97825603  T        3       1.47480425      -0.06432154       1.69866797
Fe      12.00715972       2.15705114       4.44510537  T        2       0.83815615      -3.15433283      -0.83378591
Fe       4.21181401       2.19091668       4.51907929  T        2      -1.40217273      -2.30435826       1.45015072
Fe       8.17939961       2.26564970       4.55332885  T        2       1.76290924       1.33968956       0.77821664
Fe      14.26203975       5.48675448       4.63150233  T        2       1.68109305      -1.54441182       0.32235998
Fe       6.16226601       6.03795512       4.51232076  T        2      -1.42195416      -2.09723939       1.40203562
Fe      10.00593605       6.08284588       4.51177735  T        2      -0.57914778      -0.55792831       1.20204330
Fe      16.24013725       8.97645022       4.62694443  T        2       0.79167857       0.05319868       0.84562818
Fe       8.20705348       9.94810895       4.48575887  T        2       2.80826191       2.26525610       0.32575764
Fe      12.24130417       8.99804003       4.51784313  T        2       1.20819772       0.78027976      -2.52432652
Fe      17.91039080      10.25297837       5.14503709  T        1      -0.10752195      -1.04374666      -1.39554205
Fe      10.53557688      10.35407238       5.18482412  T        1       1.35100215       1.80166915      -0.66618415
Fe      14.24743195       9.95875172       5.15769044  T        1       1.29941063      -0.13266539       3.51504242
Fe       2.05258543       3.36422459       5.30188306  T        1       0.74434467      -0.22314128       2.96366595
Fe       6.23893134       4.06047919       5.34628591  T        1       0.51375594       2.82879509       2.85689828
Fe       9.99724932       3.89716905       5.15768983  T        1       0.27996069      -1.62543311      -2.06353123
Fe       3.95716263       6.76177030       5.28186981  T        1       4.96623394       1.74098587       2.15861825
Fe       8.17050018       7.61102793       5.18238024  T        1       1.67953800      -1.16566950      -0.20916464
Fe      12.45088694       6.76965116       5.26063792  T        1       0.44688437       2.05706376       1.34603591
N        7.60133488       3.22758160       6.33086997  T        0       0.67769248       0.16846258       0.11555950
N        8.79877979       3.30688091       6.30415190  T        0      -0.00341609       0.49432034       0.21663923
74
Lattice="12.176378772032349 0.0 0.0 6.088189386016174 10.545053342681582 0.0 0.0 0.0 20.0" Properties=species:S:1:pos:R:3:move_mask:L:1:tags:I:1:momenta:R:3 pbc="T T F"
Fe      12.17637877       2.34334519       0.00000000  F        8       0.00000000       0.00000000       0.00000000
Fe       4.05879292       2.34334519       0.00000000  F        8       0.00000000       0.00000000       0.00000000
Fe       8.11758585       2.34334519       0.00000000  F        8       0.00000000       0.00000000       0.00000000
Fe      14.20577523       5.85836297       0.00000000  F        8       0.00000000       0.00000000       0.00000000
Fe       6.08818939       5.85836297       0.00000000  F        8       0.00000000       0.00000000       0.00000000
Fe      10.14698231       5.85836297       0.00000000  F        8       0.00000000       0.00000000       0.00000000
Fe      16.23517169       9.37338075       0.00000000  F        8       0.00000000       0.00000000       0.00000000
Fe       8.11758585       9.37338075       0.00000000  F        8       0.00000000       0.00000000       0.00000000
Fe      12.17637877       9.37338075       0.00000000  F        8       0.00000000       0.00000000       0.00000000
Fe       0.00000000       0.00000000       0.82849764  F        7       0.00000000       0.00000000       0.00000000
Fe       4.05879292       0.00000000       0.82849764  F        7       0.00000000       0.00000000       0.00000000
Fe       8.11758585       0.00000000       0.82849764  F        7       0.00000000       0.00000000       0.00000000
Fe       2.02939646       3.51501778       0.82849764  F        7       0.00000000       0.00000000       0.00000000
Fe       6.08818939       3.51501778       0.82849764  F        7       0.00000000       0.00000000       0.00000000
Fe      10.14698231       3.51501778       0.82849764  F        7       0.00000000       0.00000000       0.00000000
Fe       4.05879292       7.03003556       0.82849764  F        7       0.00000000       0.00000000       0.00000000
Fe       8.11758585       7.03003556       0.82849764  F        7       0.00000000       0.00000000       0.00000000
Fe      12.17637877       7.03003556       0.82849764  F        7       0.00000000       0.00000000       0.00000000
Fe       2.02939646       1.17167259       1.65699527  F        6       0.00000000       0.00000000       0.00000000
Fe       6.08818939       1.17167259       1.65699527  F        6       0.00000000       0.00000000       0.00000000
Fe      10.14698231       1.17167259       1.65699527  F        6       0.00000000       0.00000000       0.00000000
Fe       4.05879292       4.68669037       1.65699527  F        6       0.00000000       0.00000000       0.00000000
Fe       8.11758585       4.68669037       1.65699527  F        6       0.00000000       0.00000000       0.00000000
Fe      12.17637877       4.68669037       1.65699527  F        6       0.00000000       0.00000000       0.00000000
Fe       6.08818939       8.20170816       1.65699527  F        6       0.00000000       0.00000000       0.00000000
Fe      10.14698231       8.20170816       1.65699527  F        6       0.00000000       0.00000000       0.00000000
Fe      14.20577523       8.20170816       1.65699527  F        6       0.00000000       0.00000000       0.00000000
Fe      12.35852671       2.49836869       2.18786081  T        5       0.95714045       0.45251908      -0.43809826
Fe       3.92086321       2.52060682       2.24827245  T        5       0.14386896       1.11957216       1.21117944
Fe       8.13959841       2.37182000       2.16681198  T        5       0.56389687      -0.28214774       1.35989697
Fe      14.29530360       5.97050230       2.14421469  T        5       2.58796022      -1.01349194      -1.98195671
Fe       6.06078814       5.54680522       2.26413918  T        5      -0.88720313      -1.75528977       0.87094402
Fe      10.16724901       5.44195842       2.19705860  T        5       0.75164523      -4.25935586      -0.74554796
Fe      16.33983187       9.42283250       2.34799536  T        5       1.72162125      -0.17981332       1.03732355
Fe       8.01048654       9.31597597       2.28831949  T        5      -2.89966173       0.79601076       1.73409821
Fe      12.03837658       9.32702588       2.25665193  T        5      -2.62993118      -2.82709702      -1.49692486
Fe       0.18264503       0.24622598       3.03609753  T        4       0.74039889       0.26061815      -1.11725056
Fe       3.95805739       0.26696170       3.00267645  T        4       1.48729216       0.80138918      -1.86604827
Fe       8.11863853       0.17211716       2.99065374  T        4      -0.04915796      -0.11363216       0.23824994
Fe      14.18135072       3.93015941       3.14975404  T        4      -0.88871494       1.78545367       2.70719776
Fe       6.09760245       3.09298450       3.17433135  T        4      -0.28935607      -1.49496471       1.52491945
Fe      10.06174436       3.32097297       3.16982490  T        4      -1.52418586       4.06038891       0.30705652
Fe       4.28267849       7.02846261       3.05601679  T        4      -1.64784794      -0.64320348      -0.32134958
Fe       8.03997823       6.81717385       2.98913048  T        4      -2.13891602      -1.73974586      -1.87653188
Fe      11.94353500       6.92989754       3.03357345  T        4       1.49182078      -3.58170358      -0.86527053
Fe       2.01753030       1.58256951       3.94954350  T        3      -0.22822272       1.98482201       0.47000897
Fe       6.03227207       0.82691275       3.96038626  T        3      -0.64912731      -0.19048686      -1.09029342
Fe      10.22815981       0.77521372       4.02567660  T        3       1.31892387      -1.55460130       0.68058619
Fe       4.21030696       4.70459442       3.94624414  T        3      -1.90589610       0.24433304       0.10119957
Fe       8.25541986       4.74203913       3.88134971  T        3       3.61833571       1.70980364      -0.25630193
Fe      11.96344019       4.73325096       3.98878742  T        3       0.48910745       1.24472918       1.32711551
Fe       6.34022404       8.45588675       4.01643988  T        3       1.46662430       0.70709176       2.49215029
Fe       9.97402997       8.44302316       3.93712410  T        3       0.98217310       0.52617269       0.25963982
Fe      14.25831171       7.88272055       3.97974550  T        3       1.46453904      -0.07158229       1.68796686
Fe      12.00789353       2.15428974       4.44437394  T        2       0.83026090      -3.12405180      -0.82919974
Fe       4.21058200       2.18889546       4.52035516  T        2      -1.39913206      -2.29125136       1.45092403
Fe       8.18094443       2.26682096       4.55400717  T        2       1.74950844       1.32326576       0.76392084
Fe      14.26351523       5.48541934       4.63180092  T        2       1.67367721      -1.49084511       0.35698834
Fe       6.16101550       6.03612057       4.51355024  T        2      -1.42140833      -2.07378854       1.39341011
Fe      10.00542983       6.08236966       4.51282579  T        2      -0.57176060      -0.52450283       1.18176920
Fe      16.24082400       8.97649117       4.62768776  T        2       0.76957262       0.03972951       0.84452352
Fe       8.20952361       9.95009657       4.48604632  T        2       2.80824746       2.25403825       0.32789162
Fe      12.24236995       8.99872271       4.51562387  T        2       1.21523739       0.77192279      -2.52174682
Fe      17.91030606      10.25206764       5.14382897  T        1      -0.08484868      -1.02683852      -1.35099934
Fe      10.53676147      10.35565327       5.18424059  T        1       1.34237749       1.79278004      -0.66056347
Fe      14.24857488       9.95863628       5.16076865  T        1       1.29937467      -0.12983789       3.48383548
Fe       2.05324076       3.36402756       5.30449101  T        1       0.74576324      -0.22487576       2.96619043
Fe       6.23938666       4.06295641       5.34878836  T        1       0.52146967       2.80353269       2.83287288
Fe       9.99751472       3.89574854       5.15590097  T        1       0.32381822      -1.60446444      -2.00291033
Fe       3.96152711       6.76329816       5.28376199  T        1       4.95764503       1.73297622       2.14363717
Fe       8.17197817       7.61000274       5.18218581  T        1       1.68108745      -1.16539668      -0.23309751
Fe      12.45128451       6.77145928       5.26181063  T        1       0.45716744       2.05421416       1.32020351
N        7.60347332       3.22817233       6.33129043  T        0       0.53872507       0.16832314       0.12450621
N        8.79893881       3.30860128       6.30494022  T        0       0.09726724       0.48701137       0.23287911
74
Lattice="12.176378772032349 0.0 0.0 6.088189386016174 10.545053342681582 0.0 0.0 0.0 20.0" Properties=species:S:1:pos:R:3:move_mask:L:1:tags:I:1:momenta:R:3 pbc="T T F"
Fe      12.17637877       2.34334519       0.00000000  F        8       0.00000000       0.00000000       0.00000000
Fe       4.05879292       2.34334519       0.00000000  F        8       0.00000000       0.00000000       0.00000000
Fe       8.11758585       2.34334519       0.00000000  F        8       0.00000000       0.00000000       0.00000000
Fe      14.20577523       5.85836297       0.00000000  F        8       0.00000000       0.00000000       0.00000000
Fe       6.08818939       5.85836297       0.00000000  F        8       0.00000000       0.00000000       0.00000000
Fe      10.14698231       5.85836297       0.00000000  F        8       0.00000000       0.00000000       0.00000000
Fe      16.23517169       9.37338075       0.00000000  F        8       0.00000000       0.00000000       0.00000000
Fe       8.11758585       9.37338075       0.00000000  F        8       0.00000000       0.00000000       0.00000000
Fe      12.17637877       9.37338075       0.00000000  F        8       0.00000000       0.00000000       0.00000000
Fe       0.00000000       0.00000000       0.82849764  F        7       0.00000000       0.00000000       0.00000000
Fe       4.05879292       0.00000000       0.82849764  F        7       0.00000000       0.00000000       0.00000000
Fe       8.11758585       0.00000000       0.82849764  F        7       0.00000000       0.00000000       0.00000000
Fe       2.02939646       3.51501778       0.82849764  F        7       0.00000000       0.00000000       0.00000000
Fe       6.08818939       3.51501778       0.82849764  F        7       0.00000000       0.00000000       0.00000000
Fe      10.14698231       3.51501778       0.82849764  F        7       0.00000000       0.00000000       0.00000000
Fe       4.05879292       7.03003556       0.82849764  F        7       0.00000000       0.00000000       0.00000000
Fe       8.11758585       7.03003556       0.82849764  F        7       0.00000000       0.00000000       0.00000000
Fe      12.17637877       7.03003556       0.82849764  F        7       0.00000000       0.00000000       0.00000000
Fe       2.02939646       1.17167259       1.65699527  F        6       0.00000000       0.00000000       0.00000000
Fe       6.08818939       1.17167259       1.65699527  F        6       0.00000000       0.00000000       0.00000000
Fe      10.14698231       1.17167259       1.65699527  F        6       0.00000000       0.00000000       0.00000000
Fe       4.05879292       4.68669037       1.65699527  F        6       0.00000000       0.00000000       0.00000000
Fe       8.11758585       4.68669037       1.65699527  F        6       0.00000000       0.00000000       0.00000000
Fe      12.17637877       4.68669037       1.65699527  F        6       0.00000000       0.00000000       0.00000000
Fe       6.08818939       8.20170816       1.65699527  F        6       0.00000000       0.00000000       0.00000000
Fe      10.14698231       8.20170816       1.65699527  F        6       0.00000000       0.00000000       0.00000000
Fe      14.20577523       8.20170816       1.65699527  F        6       0.00000000       0.00000000       0.00000000
Fe      12.35935742       2.49876764       2.18748203  T        5       0.93880769       0.45806585      -0.42639851
Fe       3.92098588       2.52158774       2.24932747  T        5       0.13608568       1.11931140       1.19678362
Fe       8.14008724       2.37157239       2.16799599  T        5       0.55178397      -0.28301483       1.34245433
Fe      14.29755781       5.96962677       2.14248792  T        5       2.55694101      -0.98472780      -1.95916416
Fe       6.06001710       5.54527537       2.26489878  T        5      -0.87253872      -1.73642881       0.86278313
Fe      10.16790456       5.43826663       2.19642046  T        5       0.74458131      -4.16621249      -0.71084383
Fe      16.34133071       9.42267442       2.34889638  T        5       1.69927412      -0.18101319       1.01909432
Fe       8.00796746       9.31666591       2.28982781  T        5      -2.84968789       0.77863749       1.70840896
Fe      12.03608825       9.32456574       2.25534877  T        5      -2.59286942      -2.78784937      -1.47739931
Fe       0.18329061       0.24645031       3.03512099  T        4       0.73303865       0.25134256      -1.11157526
Fe       3.95934725       0.26765518       3.00105491  T        4       1.45654769       0.78131388      -1.83483505
Fe       8.11859310       0.17201032       2.99087241  T        4      -0.05456471      -0.13034685       0.26090085
Fe      14.18056970       3.93169963       3.15209590  T        4      -0.89403319       1.72967668       2.63765154
Fe       6.09735185       3.09169069       3.17567087  T        4      -0.28259807      -1.45789886       1.53246047
Fe      10.06042775       3.32448325       3.17006630  T        4      -1.48069888       3.95089924       0.24348272
Fe       4.28124579       7.02790340       3.05574106  T        4      -1.62213201      -0.63309930      -0.30792905
Fe       8.03811799       6.81567109       2.98750306  T        4      -2.10685965      -1.68994010      -1.83782668
Fe      11.94483502       6.92677594       3.03282725  T        4       1.47537160      -3.54293440      -0.83777382
Fe       2.01733542       1.58429636       3.94994946  T        3      -0.21649045       1.95650598       0.45649497
Fe       6.03171897       0.82674788       3.95943561  T        3      -0.61303231      -0.18575726      -1.07947652
Fe      10.22929434       0.77386473       4.02626477  T        3       1.27027162      -1.52420360       0.66177465
Fe       4.20865388       4.70480205       3.94633679  T        3      -1.86689416       0.22945664       0.11031982
Fe       8.25855847       4.74352611       3.88113102  T        3       3.54482658       1.68403729      -0.24272037
Fe      11.96387165       4.73433570       3.98994810  T        3       0.49573920       1.23104092       1.32211170
Fe       6.34151049       8.45649100       4.01860619  T        3       1.46970150       0.67189906       2.45217542
Fe       9.97488295       8.44347665       3.93734758  T        3       0.96464801       0.50881974       0.25042370
Fe      14.25958561       7.88265483       3.98121427  T        3       1.44295323      -0.07845904       1.66432467
Fe      12.00861480       2.15157609       4.44365216  T        2       0.81591770      -3.06934745      -0.81808899
Fe       4.20936196       2.18690115       4.52162210  T        2      -1.38551076      -2.26047892       1.44078361
Fe       8.18246571       2.26796879       4.55466766  T        2       1.72257762       1.29644031       0.74350409
Fe      14.26497295       5.48414170       4.63212797  T        2       1.65334035      -1.42494478       0.38974041
Fe       6.15977492       6.03432070       4.51476278  T        2      -1.41010685      -2.03402459       1.37405643
Fe      10.00493401       6.08192666       4.51384846  T        2      -0.55980554      -0.48633799       1.15234325
Fe      16.24148597       8.97651985       4.62842450  T        2       0.74113651       0.02563049       0.83701843
Fe       8.21197507       9.95205926       4.48633351  T        2       2.78695429       2.22561087       0.32761966
Fe      12.24343393       8.99939286       4.51342365  T        2       1.21326140       0.75761088      -2.50004768
Fe      17.91024210      10.25117878       5.14266940  T        1      -0.06091645      -1.00177199      -1.29535549
Fe      10.53792946      10.35721431       5.18366645  T        1       1.32340439       1.77007285      -0.64977838
Fe      14.24970916       9.95852418       5.16379603  T        1       1.28955717      -0.12605817       3.42575316
Fe       2.05389241       3.36383048       5.30708145  T        1       0.74159030      -0.22493968       2.94618059
Fe       6.23984524       4.06539251       5.35125065  T        1       0.52515215       2.75644189       2.78697850
Fe       9.99781683       3.89435715       5.15417964  T        1       0.36584412      -1.57129649      -1.92510594
Fe       3.96585114       6.76480742       5.28562664  T        1       4.91165372       1.71177735       2.11216768
Fe       8.17344636       7.60898552       5.18197173  T        1       1.66994692      -1.15632502      -0.25559185
Fe      12.45168815       6.77325126       5.26295164  T        1       0.46414578       2.03585448       1.28391125
N        7.60509911       3.22875773       6.33173993  T        0       0.39079089       0.16676230       0.13295118
N        8.79945942       3.31028381       6.30577909  T        0       0.20213360       0.47630731       0.24721860
74
Lattice="12.176378772032349 0.0 0.0 6.088189386016174 10.545053342681582 0.0 0.0 0.0 20.0" Properties=species:S:1:pos:R:3:move_mask:L:1:tags:I:1:momenta:R:3 pbc="T T F"
Fe      12.17637877       2.34334519       0.00000000  F        8       0.00000000       0.00000000       0.00000000
Fe       4.05879292       2.34334519       0.00000000  F        8       0.00000000       0.00000000       0.00000000
Fe       8.11758585       2.34334519       0.00000000  F        8       0.00000000       0.00000000       0.00000000
Fe      14.20577523       5.85836297       0.00000000  F        8       0.00000000       0.00000000       0.00000000
Fe       6.08818939       5.85836297       0.00000000  F        8       0.00000000       0.00000000       0.00000000
Fe      10.14698231       5.85836297       0.00000000  F        8       0.00000000       0.00000000       0.00000000
Fe      16.23517169       9.37338075       0.00000000  F        8       0.00000000       0.00000000       0.00000000
Fe       8.11758585       9.37338075       0.00000000  F        8       0.00000000       0.00000000       0.00000000
Fe      12.17637877       9.37338075       0.00000000  F        8       0.00000000       0.00000000       0.00000000
Fe       0.00000000       0.00000000       0.82849764  F        7       0.00000000       0.00000000       0.00000000
Fe       4.05879292       0.00000000       0.82849764  F        7       0.00000000       0.00000000       0.00000000
Fe       8.11758585       0.00000000       0.82849764  F        7       0.00000000       0.00000000       0.00000000
Fe       2.02939646       3.51501778       0.82849764  F        7       0.00000000       0.00000000       0.00000000
Fe       6.08818939       3.51501778       0.82849764  F        7       0.00000000       0.00000000       0.00000000
Fe      10.14698231       3.51501778       0.82849764  F        7       0.00000000       0.00000000       0.00000000
Fe       4.05879292       7.03003556       0.82849764  F        7       0.00000000       0.00000000       0.00000000
Fe       8.11758585       7.03003556       0.82849764  F        7       0.00000000       0.00000000       0.00000000
Fe      12.17637877       7.03003556       0.82849764  F        7       0.00000000       0.00000000       0.00000000
Fe       2.02939646       1.17167259       1.65699527  F        6       0.00000000       0.00000000       0.00000000
Fe       6.08818939       1.17167259       1.65699527  F        6       0.00000000       0.00000000       0.00000000
Fe      10.14698231       1.17167259       1.65699527  F        6       0.00000000       0.00000000       0.00000000
Fe       4.05879292       4.68669037       1.65699527  F        6       0.00000000       0.00000000       0.00000000
Fe       8.11758585       4.68669037       1.65699527  F        6       0.00000000       0.00000000       0.00000000
Fe      12.17637877       4.68669037       1.65699527  F        6       0.00000000       0.00000000       0.00000000
Fe       6.08818939       8.20170816       1.65699527  F        6       0.00000000       0.00000000       0.00000000
Fe      10.14698231       8.20170816       1.65699527  F        6       0.00000000       0.00000000       0.00000000
Fe      14.20577523       8.20170816       1.65699527  F        6       0.00000000       0.00000000       0.00000000
Fe      12.36017825       2.49917451       2.18711069  T        5       0.92746650       0.46712652      -0.41789015
Fe       3.92110261       2.52257590       2.25037782  T        5       0.12928991       1.12757880       1.19141739
Fe       8.14056910       2.37132212       2.16917361  T        5       0.54376566      -0.28606646       1.33510265
Fe      14.29980175       5.96876998       2.14076815  T        5       2.54508782      -0.96326402      -1.95109593
Fe       6.05925318       5.54375051       2.26565698  T        5      -0.86432471      -1.73068534       0.86115069
Fe      10.16855887       5.43462925       2.19580809  T        5       0.74312997      -4.10346911      -0.68131112
Fe      16.34282122       9.42251406       2.34978814  T        5       1.68969065      -0.18364825       1.00841614
Fe       8.00547339       9.31734575       2.29132491  T        5      -2.82088819       0.76703950       1.69548268
Fe      12.03381523       9.32212152       2.25405290  T        5      -2.57524325      -2.76954746      -1.46904105
Fe       0.18393458       0.24666814       3.03414205  T        4       0.73114897       0.24384079      -1.11426964
Fe       3.96061973       0.26833618       2.99944862  T        4       1.43654638       0.76697381      -1.81728363
Fe       8.11854254       0.17188785       2.99111272  T        4      -0.06043689      -0.14828790       0.28565485
Fe      14.17977794       3.93320225       3.15439417  T        4      -0.90642544       1.68646287       2.58764675
Fe       6.09710531       3.09041978       3.17702724  T        4      -0.27792197      -1.43160669       1.55169426
Fe      10.05913953       3.32792337       3.17025323  T        4      -1.44810903       3.87020959       0.18092629
Fe       4.27982484       7.02734886       3.05547508  T        4      -1.60868493      -0.62775000      -0.29673807
Fe       8.03627185       6.81420092       2.98589739  T        4      -2.09070161      -1.65250343      -1.81290156
Fe      11.94613046       6.92366484       3.03209965  T        4       1.47013986      -3.53077146      -0.81644650
Fe       2.01714945       1.58601138       3.95034656  T        3      -0.20626450       1.94291811       0.44630920
Fe       6.03119363       0.82658597       3.95848725  T        3      -0.58113636      -0.18230615      -1.07682836
Fe      10.23039447       0.77253235       4.02684079  T        3       1.23073119      -1.50510639       0.64783977
Fe       4.20702274       4.70499808       3.94643821  T        3      -1.84163491       0.21613147       0.12039712
Fe       8.26165590       4.74500168       3.88092272  T        3       3.49736915       1.67093876      -0.23071879
Fe      11.96431229       4.73541659       3.99111327  T        3       0.50627316       1.22655912       1.32726594
Fe       6.34280953       8.45706875       4.02075373  T        3       1.48414539       0.64146593       2.43064641
Fe       9.97572697       8.44391828       3.93756464  T        3       0.95440024       0.49524116       0.24310050
Fe      14.26085014       7.88258253       3.98267337  T        3       1.43216107      -0.08602600       1.65323252
Fe      12.00932889       2.14889017       4.44293476  T        2       0.80766548      -3.03739903      -0.81297174
Fe       4.20814462       2.18491885       4.52288978  T        2      -1.38243645      -2.24663879       1.44163473
Fe       8.18397478       2.26910165       4.55531514  T        2       1.70853225       1.27928358       0.72869072
Fe      14.26642377       5.48291259       4.63248655  T        2       1.64535136      -1.36925967       0.42598147
Fe       6.15853485       6.03254233       4.51596747  T        2      -1.40950635      -2.00925866       1.36500791
Fe      10.00444503       6.08151409       4.51485299  T        2      -0.55191246      -0.45137229       1.13161591
Fe      16.24212780       8.97653626       4.62916024  T        2       0.71800576       0.01151294       0.83586514
Fe       8.21442640       9.95401184       4.48662267  T        2       2.78677631       2.21400893       0.32989207
Fe      12.24450431       9.00005550       4.51122581  T        2       1.22061400       0.74900582      -2.49730086
Fe      17.91019889      10.25030533       5.14155019  T        1      -0.03702102      -0.98405768      -1.24904358
Fe      10.53908959      10.35876716       5.18309750  T        1       1.31435537       1.76061746      -0.64380400
Fe      14.25084346       9.95841452       5.16679521  T        1       1.28957631      -0.12329049       3.39340795
Fe       2.05454536       3.36363185       5.30967391  T        1       0.74308596      -0.22672159       2.94839973
Fe       6.24031050       4.06780552       5.35369119  T        1       0.53274124       2.72982853       2.76204260
Fe       9.99815831       3.89298432       5.15251434  T        1       0.41085005      -1.55016674      -1.86038300
Fe       3.97016766       6.76630951       5.28747770  T        1       4.90311555       1.70355632       2.09658192
Fe       8.17491593       7.60796854       5.18173618  T        1       1.67149464      -1.15604826      -0.28014794
Fe      12.45210103       6.77504074       5.26406928  T        1       0.47471639       2.03300026       1.25710747
N        7.60621425       3.22934197       6.33222292  T        0       0.24489520       0.16648106       0.14254169
N        8.80035653       3.31194200       6.30667416  T        0       0.30979437       0.46934640       0.26316230
74
Lattice="12.176378772032349 0.0 0.0 6.088189386016174 10.545053342681582 0.0 0.0 0.0 20.0" Properties=species:S:1:pos:R:3:move_mask:L:1:tags:I:1:momenta:R:3 pbc="T T F"
Fe      12.17637877       2.34334519       0.00000000  F        8       0.00000000       0.00000000       0.00000000
Fe       4.05879292       2.34334519       0.00000000  F        8       0.00000000       0.00000000       0.00000000
Fe       8.11758585       2.34334519       0.00000000  F        8       0.00000000       0.00000000       0.00000000
Fe      14.20577523       5.85836297       0.00000000  F        8       0.00000000       0.00000000       0.00000000
Fe       6.08818939       5.85836297       0.00000000  F        8       0.00000000       0.00000000       0.00000000
Fe      10.14698231       5.85836297       0.00000000  F        8       0.00000000       0.00000000       0.00000000
Fe      16.23517169       9.37338075       0.00000000  F        8       0.00000000       0.00000000       0.00000000
Fe       8.11758585       9.37338075       0.00000000  F        8       0.00000000       0.00000000       0.00000000
Fe      12.17637877       9.37338075       0.00000000  F        8       0.00000000       0.00000000       0.00000000
Fe       0.00000000       0.00000000       0.82849764  F        7       0.00000000       0.00000000       0.00000000
Fe       4.05879292       0.00000000       0.82849764  F        7       0.00000000       0.00000000       0.00000000
Fe       8.11758585       0.00000000       0.82849764  F        7       0.00000000       0.00000000       0.00000000
Fe       2.02939646       3.51501778       0.82849764  F        7       0.00000000       0.00000000       0.00000000
Fe       6.08818939       3.51501778       0.82849764  F        7       0.00000000       0.00000000       0.00000000
Fe      10.14698231       3.51501778       0.82849764  F        7       0.00000000       0.00000000       0.00000000
Fe       4.05879292       7.03003556       0.82849764  F        7       0.00000000       0.00000000       0.00000000
Fe       8.11758585       7.03003556       0.82849764  F        7       0.00000000       0.00000000       0.00000000
Fe      12.17637877       7.03003556       0.82849764  F        7       0.00000000       0.00000000       0.00000000
Fe       2.02939646       1.17167259       1.65699527  F        6       0.00000000       0.00000000       0.00000000
Fe       6.08818939       1.17167259       1.65699527  F        6       0.00000000       0.00000000       0.00000000
Fe      10.14698231       1.17167259       1.65699527  F        6       0.00000000       0.00000000       0.00000000
Fe       4.05879292       4.68669037       1.65699527  F        6       0.00000000       0.00000000       0.00000000
Fe       8.11758585       4.68669037       1.65699527  F        6       0.00000000       0.00000000       0.00000000
Fe      12.17637877       4.68669037       1.65699527  F        6       0.00000000       0.00000000       0.00000000
Fe       6.08818939       8.20170816       1.65699527  F        6       0.00000000       0.00000000       0.00000000
Fe      10.14698231       8.20170816       1.65699527  F        6       0.00000000       0.00000000       0.00000000
Fe      14.20577523       8.20170816       1.65699527  F        6       0.00000000       0.00000000       0.00000000
Fe      12.36099248       2.49959115       2.18674532  T        5       0.91983637       0.47826046      -0.41104557
Fe       3.92121381       2.52357558       2.25142786  T        5       0.12294797       1.14070390       1.19100287
Fe       8.14104587       2.37106807       2.17034968  T        5       0.53789713      -0.29038904       1.33324999
Fe      14.30204462       5.96792861       2.13904827  T        5       2.54367409      -0.94555537      -1.95107293
Fe       6.05849335       5.54222429       2.26641693  T        5      -0.85953593      -1.73216250       0.86313187
Fe      10.16921465       5.43103249       2.19521935  T        5       0.74477506      -4.05640102      -0.65423676
Fe      16.34430952       9.42235066       2.35067415  T        5       1.68705488      -0.18714084       1.00174509
Fe       8.00299443       9.31801815       2.29281684  T        5      -2.80336090       0.75846955       1.68943381
Fe      12.03154827       9.31968321       2.25275895  T        5      -2.56814070      -2.76261969      -1.46679505
Fe       0.18457958       0.24688019       3.03315661  T        4       0.73224241       0.23718279      -1.12162027
Fe       3.96187978       0.26900730       2.99785116  T        4       1.42216855       0.75558538      -1.80703046
Fe       8.11848655       0.17174890       2.99137600  T        4      -0.06665757      -0.16722605       0.31191030
Fe      14.17897173       3.93467275       3.15665775  T        4      -0.92303288       1.64952783       2.54777649
Fe       6.09686189       3.08916686       3.17840640  T        4      -0.27432507      -1.41089528       1.57768763
Fe      10.05787483       3.33130617       3.17038526  T        4      -1.42108460       3.80412931       0.11789354
Fe       4.27840979       7.02679672       3.05521793  T        4      -1.60190689      -0.62497062      -0.28661774
Fe       8.03443222       6.81275784       2.98430703  T        4      -2.08318720      -1.62133588      -1.79530556
Fe      11.94742677       6.92055143       3.03138791  T        4       1.47111268      -3.53317269      -0.79823670
Fe       2.01697179       1.58772159       3.95073628  T        3      -0.19670239       1.93733726       0.43780468
Fe       6.03069447       0.82642648       3.95753723  T        3      -0.55102045      -0.17947221      -1.07870122
Fe      10.23146404       0.77121133       4.02740686  T        3       1.19559368      -1.49198247       0.63639999
Fe       4.20540721       4.70518307       3.94654904  T        3      -1.82357082       0.20344043       0.13116862
Fe       8.26472410       4.74647187       3.88072428  T        3       3.46351713       1.66469637      -0.21932296
Fe      11.96476418       4.73649804       3.99228798  T        3       0.51917934       1.22710014       1.33819429
Fe       6.34412694       8.45762187       4.02289126  T        3       1.50518044       0.61319836       2.41908972
Fe       9.97656549       8.44434973       3.93777615  T        3       0.94807719       0.48357818       0.23674769
Fe      14.26211041       7.88250318       3.98412881  T        3       1.42719395      -0.09410269       1.64897804
Fe      12.01003866       2.14622136       4.44221895  T        2       0.80267129      -3.01753719      -0.81103940
Fe       4.20692482       2.18294048       4.52416361  T        2      -1.38522435      -2.24198302       1.44864948
Fe       8.18547774       2.27022408       4.55595229  T        2       1.70142461       1.26733408       0.71700364
Fe      14.26787359       5.48172779       4.63287895  T        2       1.64406502      -1.31838985       0.46480505
Fe       6.15729005       6.03077851       4.51716920  T        2      -1.41486191      -1.99237026       1.36154057
Fe      10.00396103       6.08113092       4.51584342  T        2      -0.54610677      -0.41758160       1.11548106
Fe      16.24275176       8.97654015       4.62989807  T        2       0.69743589      -0.00286392       0.83824103
Fe       8.21688796       9.95596241       4.48691509  T        2       2.79835024       2.21162637       0.33363547
Fe      12.24558579       9.00071331       4.50902108  T        2       1.23330489       0.74346946      -2.50507898
Fe      17.91017683      10.24944396       5.14046742  T        1      -0.01269160      -0.97013151      -1.20720432
Fe      10.54024658      10.36031816       5.18253147  T        1       1.31068552       1.75836161      -0.64039093
Fe      14.25198260       9.95830682       5.16977838  T        1       1.29510393      -0.12108175       3.37492975
Fe       2.05520243       3.36343079       5.31227928  T        1       0.74777844      -0.22948080       2.96296377
Fe       6.24078443       4.07020502       5.35611995  T        1       0.54262890       2.71410097       2.74847099
Fe       9.99854113       3.89162431       5.15089991  T        1       0.45806261      -1.53556201      -1.80154602
Fe       3.97449501       6.76781068       5.28932277  T        1       4.91544486       1.70247199       2.08961106
Fe       8.17639310       7.60694748       5.18147785  T        1       1.68013972      -1.16067940      -0.30617804
Fe      12.45252505       6.77683531       5.26516783  T        1       0.48744089       2.03878393       1.23517990
N        7.60682040       3.22992787       6.33274181  T        0       0.10096343       0.16708863       0.15270841
N        8.80163687       3.31358270       6.30762878  T        0       0.41789379       0.46421753       0.28005852
74
Lattice="12.176378772032349 0.0 0.0 6.088189386016174 10.545053342681582 0.0 0.0 0.0 20.0" Properties=species:S:1:pos:R:3:move_mask:L:1:tags:I:1:momenta:R:3 pbc="T T F"
Fe      12.17637877       2.34334519       0.00000000  F        8       0.00000000       0.00000000       0.00000000
Fe       4.05879292       2.34334519       0.00000000  F        8       0.00000000       0.00000000       0.00000000
Fe       8.11758585       2.34334519       0.00000000  F        8       0.00000000       0.00000000       0.00000000
Fe      14.20577523       5.85836297       0.00000000  F        8       0.00000000       0.00000000       0.00000000
Fe       6.08818939       5.85836297       0.00000000  F        8       0.00000000       0.00000000       0.00000000
Fe      10.14698231       5.85836297       0.00000000  F        8       0.00000000       0.00000000       0.00000000
Fe      16.23517169       9.37338075       0.00000000  F        8       0.00000000       0.00000000       0.00000000
Fe       8.11758585       9.37338075       0.00000000  F        8       0.00000000       0.00000000       0.00000000
Fe      12.17637877       9.37338075       0.00000000  F        8       0.00000000       0.00000000       0.00000000
Fe       0.00000000       0.00000000       0.82849764  F        7       0.00000000       0.00000000       0.00000000
Fe       4.05879292       0.00000000       0.82849764  F        7       0.00000000       0.00000000       0.00000000
Fe       8.11758585       0.00000000       0.82849764  F        7       0.00000000       0.00000000       0.00000000
Fe       2.02939646       3.51501778       0.82849764  F        7       0.00000000       0.00000000       0.00000000
Fe       6.08818939       3.51501778       0.82849764  F        7       0.00000000       0.00000000       0.00000000
Fe      10.14698231       3.51501778       0.82849764  F        7       0.00000000       0.00000000       0.00000000
Fe       4.05879292       7.03003556       0.82849764  F        7       0.00000000       0.00000000       0.00000000
Fe       8.11758585       7.03003556       0.82849764  F        7       0.00000000       0.00000000       0.00000000
Fe      12.17637877       7.03003556       0.82849764  F        7       0.00000000       0.00000000       0.00000000
Fe       2.02939646       1.17167259       1.65699527  F        6       0.00000000       0.00000000       0.00000000
Fe       6.08818939       1.17167259       1.65699527  F        6       0.00000000       0.00000000       0.00000000
Fe      10.14698231       1.17167259       1.65699527  F        6       0.00000000       0.00000000       0.00000000
Fe       4.05879292       4.68669037       1.65699527  F        6       0.00000000       0.00000000       0.00000000
Fe       8.11758585       4.68669037       1.65699527  F        6       0.00000000       0.00000000       0.00000000
Fe      12.17637877       4.68669037       1.65699527  F        6       0.00000000       0.00000000       0.00000000
Fe       6.08818939       8.20170816       1.65699527  F        6       0.00000000       0.00000000       0.00000000
Fe      10.14698231       8.20170816       1.65699527  F        6       0.00000000       0.00000000       0.00000000
Fe      14.20577523       8.20170816       1.65699527  F        6       0.00000000       0.00000000       0.00000000
Fe      12.36179624       2.50001577       2.18638766  T        5       0.90782453       0.48737672      -0.40222149
Fe       3.92131887       2.52458239       2.25247279  T        5       0.11593531       1.14882801       1.18513997
Fe       8.14151526       2.37081133       2.17151879  T        5       0.52943268      -0.29348428       1.32524017
Fe      14.30427605       5.96710675       2.13733622  T        5       2.53047204      -0.92320801      -1.94205010
Fe       6.05774126       5.54070365       2.26717522  T        5      -0.85062614      -1.72574720       0.86120797
Fe      10.16986892       5.42749407       2.19465730  T        5       0.74302704      -3.98918260      -0.62369855
Fe      16.34578874       9.42218488       2.35155020  T        5       1.67661429      -0.18988535       0.99027946
Fe       8.00054231       9.31867989       2.29429661  T        5      -2.77248028       0.74623474       1.67545981
Fe      12.02929789       9.31726209       2.25147282  T        5      -2.54907560      -2.74288705      -1.45783671
Fe       0.18522259       0.24708534       3.03216913  T        4       0.72992908       0.22924280      -1.12388183
Fe       3.96312132       0.26966525       2.99627007  T        4       1.40087824       0.74046132      -1.78821137
Fe       8.11842529       0.17159371       2.99166137  T        4      -0.07269503      -0.18585925       0.33714816
Fe      14.17815433       3.93610375       3.15887569  T        4      -0.93593486       1.60418408       2.49549223
Fe       6.09662277       3.08793802       3.17980238  T        4      -0.26938336      -1.38327930       1.59687030
Fe      10.05663985       3.33461480       3.17046061  T        4      -1.38700900       3.71889815       0.05287908
Fe       4.27700710       7.02624954       3.05497092  T        4      -1.58775683      -0.61928341      -0.27498576
Fe       8.03260754       6.81134901       2.98273946  T        4      -2.06607145      -1.58202792      -1.76922351
Fe      11.94871813       6.91745002       3.03069556  T        4       1.46545461      -3.51930054      -0.77603011
Fe       2.01680345       1.58941914       3.95111666  T        3      -0.18600936       1.92280516       0.42709091
Fe       6.03022439       0.82627028       3.95658983  T        3      -0.51762980      -0.17566625      -1.07569898
Fe      10.23249750       0.76990797       4.02796021  T        3       1.15413991      -1.47170574       0.62180441
Fe       4.20381509       4.70535593       3.94666894  T        3      -1.79664014       0.18950785       0.14157003
Fe       8.26774819       4.74792987       3.88053693  T        3       3.41274965       1.65071725      -0.20650189
Fe      11.96522552       4.73757505       3.99346714  T        3       0.53004465       1.22195456       1.34329955
Fe       6.34545713       8.45814736       4.02500889  T        3       1.51983227       0.58152052       2.39629559
Fe       9.97739463       8.44476889       3.93798108  T        3       0.93735300       0.46951708       0.22924848
Fe      14.26336056       7.88241700       3.98557391  T        3       1.41554957      -0.10192998       1.63713134
Fe      12.01074078       2.14358235       4.44150815  T        2       0.79388674      -2.98325316      -0.80519114
Fe       4.20570802       2.18097522       4.52543794  T        2      -1.38180544      -2.22689851       1.44923731
Fe       8.18696757       2.27133088       4.55657634  T        2       1.68633746       1.24951535       0.70227493
Fe      14.26931567       5.48059355       4.63330414  T        2       1.63511278      -1.26042922       0.50245924
Fe       6.15604612       6.02903776       4.51836240  T        2      -1.41386029      -1.96581604       1.35173123
Fe      10.00348443       6.08077957       4.51681511  T        2      -0.53756668      -0.38105055       1.09406806
Fe      16.24335459       8.97653122       4.63063469  T        2       0.67317706      -0.01758656       0.83684910
Fe       8.21934868       9.95790208       4.48720953  T        2       2.79733441       2.19913316       0.33596826
Fe      12.24667369       9.00136325       4.50681939  T        2       1.24066982       0.73447035      -2.50157198
Fe      17.91017657      10.24859888       5.13942673  T        1       0.01237635      -0.95141050      -1.15897366
Fe      10.54139507      10.36186011       5.18197106  T        1       1.30092375       1.74793374      -0.63391959
Fe      14.25312153       9.95820154       5.17273168  T        1       1.29487908      -0.11835991       3.34070138
Fe       2.05586070       3.36322819       5.31488574  T        1       0.74917946      -0.23122991       2.96410563
Fe       6.24126498       4.07257960       5.35852573  T        1       0.55022525       2.68539926       2.72220383
Fe       9.99896404       3.89028328       5.14934543  T        1       0.50380805      -1.51396150      -1.73238783
Fe       3.97881388       6.76930414       5.29115331  T        1       4.90583074       1.69365056       2.07295442
Fe       8.17787128       7.60592691       5.18119761  T        1       1.68128111      -1.16012071      -0.33121015
Fe      12.45295844       6.77862695       5.26624195  T        1       0.49816735       2.03545288       1.20716747
N        7.60692230       3.23051376       6.33329386  T        0      -0.04019838       0.16730757       0.16197347
N        8.80328722       3.31519755       6.30863820  T        0       0.52080479       0.45659137       0.29559061
74
Lattice="12.176378772032349 0.0 0.0 6.088189386016174 10.545053342681582 0.0 0.0 0.0 20.0" Properties=species:S:1:pos:R:3:move_mask:L:1:tags:I:1:momenta:R:3 pbc="T T F"
Fe      12.17637877       2.34334519       0.00000000  F        8       0.00000000       0.00000000       0.00000000
Fe       4.05879292       2.34334519       0.00000000  F        8       0.00000000       0.00000000       0.00000000
Fe       8.11758585       2.34334519       0.00000000  F        8       0.00000000       0.00000000       0.00000000
Fe      14.20577523       5.85836297       0.00000000  F        8       0.00000000       0.00000000       0.00000000
Fe       6.08818939       5.85836297       0.00000000  F        8       0.00000000       0.00000000       0.00000000
Fe      10.14698231       5.85836297       0.00000000  F        8       0.00000000       0.00000000       0.00000000
Fe      16.23517169       9.37338075       0.00000000  F        8       0.00000000       0.00000000       0.00000000
Fe       8.11758585       9.37338075       0.00000000  F        8       0.00000000       0.00000000       0.00000000
Fe      12.17637877       9.37338075       0.00000000  F        8       0.00000000       0.00000000       0.00000000
Fe       0.00000000       0.00000000       0.82849764  F        7       0.00000000       0.00000000       0.00000000
Fe       4.05879292       0.00000000       0.82849764  F        7       0.00000000       0.00000000       0.00000000
Fe       8.11758585       0.00000000       0.82849764  F        7       0.00000000       0.00000000       0.00000000
Fe       2.02939646       3.51501778       0.82849764  F        7       0.00000000       0.00000000       0.00000000
Fe       6.08818939       3.51501778       0.82849764  F        7       0.00000000       0.00000000       0.00000000
Fe      10.14698231       3.51501778       0.82849764  F        7       0.00000000       0.00000000       0.00000000
Fe       4.05879292       7.03003556       0.82849764  F        7       0.00000000       0.00000000       0.00000000
Fe       8.11758585       7.03003556       0.82849764  F        7       0.00000000       0.00000000       0.00000000
Fe      12.17637877       7.03003556       0.82849764  F        7       0.00000000       0.00000000       0.00000000
Fe       2.02939646       1.17167259       1.65699527  F        6       0.00000000       0.00000000       0.00000000
Fe       6.08818939       1.17167259       1.65699527  F        6       0.00000000       0.00000000       0.00000000
Fe      10.14698231       1.17167259       1.65699527  F        6       0.00000000       0.00000000       0.00000000
Fe       4.05879292       4.68669037       1.65699527  F        6       0.00000000       0.00000000       0.00000000
Fe       8.11758585       4.68669037       1.65699527  F        6       0.00000000       0.00000000       0.00000000
Fe      12.17637877       4.68669037       1.65699527  F        6       0.00000000       0.00000000       0.00000000
Fe       6.08818939       8.20170816       1.65699527  F        6       0.00000000       0.00000000       0.00000000
Fe      10.14698231       8.20170816       1.65699527  F        6       0.00000000       0.00000000       0.00000000
Fe      14.20577523       8.20170816       1.65699527  F        6       0.00000000       0.00000000       0.00000000
Fe      12.36258692       2.50044714       2.18603889  T        5       0.89284271       0.49508248      -0.39207673
Fe       3.92141743       2.52559330       2.25350935  T        5       0.10848350       1.15351442       1.17558246
Fe       8.14197572       2.37055262       2.17267724  T        5       0.51920744      -0.29574568       1.31304396
Fe      14.30648896       5.96630715       2.13563740  T        5       2.50921949      -0.89775720      -1.92688159
Fe       6.05699938       5.53919331       2.26792950  T        5      -0.83889351      -1.71396799       0.85663094
Fe      10.17051965       5.42402617       2.19412393  T        5       0.73896587      -3.90812253      -0.59088211
Fe      16.34725420       9.42201716       2.35241341  T        5       1.66086451      -0.19212816       0.97554226
Fe       7.99812504       9.31932878       2.29575949  T        5      -2.73249456       0.73151659       1.65608655
Fe      12.02707125       9.31486580       2.25019851  T        5      -2.52186824      -2.71445668      -1.44433692
Fe       0.18586157       0.24728282       3.03118270  T        4       0.72526985       0.22042245      -1.12262962
Fe       3.96434019       0.27030779       2.99471047  T        4       1.37487628       0.72280430      -1.76355667
Fe       8.11835887       0.17142247       2.99196814  T        4      -0.07859702      -0.20428503       0.36160830
Fe      14.17732792       3.93749023       3.16104065  T        4      -0.94635442       1.55316454       2.43487326
Fe       6.09638876       3.08673737       3.18121103  T        4      -0.26352844      -1.35099686       1.61134278
Fe      10.05543878       3.33783777       3.17047813  T        4      -1.34819523       3.62062285      -0.01339806
Fe       4.27562116       7.02570906       3.05473496  T        4      -1.56863962      -0.61162948      -0.26234541
Fe       8.03080352       6.80997928       2.98119970  T        4      -2.04247480      -1.53721024      -1.73743425
Fe      11.95000059       6.91437038       3.03002495  T        4       1.45531655      -3.49431304      -0.75114777
Fe       2.01664510       1.59109867       3.95148639  T        3      -0.17455166       1.90221140       0.41487981
Fe       6.02978534       0.82611796       3.95564795  T        3      -0.48201691      -0.17117595      -1.06939597
Fe      10.23349109       0.76862653       4.02849896  T        3       1.10841332      -1.44657898       0.60507858
Fe       4.20225172       4.70551591       3.94679768  T        3      -1.76367109       0.17473763       0.15170140
Fe       8.27071801       4.74937107       3.88036159  T        3       3.35041937       1.63148626      -0.19264758
Fe      11.96569511       4.73864420       3.99464726  T        3       0.53954109       1.21291927       1.34445547
Fe       6.34679627       8.45864321       4.02709994  T        3       1.53013639       0.54756652       2.36591147
Fe       9.97821179       8.44517435       3.93817878  T        3       0.92367296       0.45386381       0.22100229
Fe      14.26459658       7.88232415       3.98700415  T        3       1.39936098      -0.10957854       1.62014831
Fe      12.01143298       2.14098179       4.44080477  T        2       0.78252951      -2.93913579      -0.79663031
Fe       4.20449791       2.17902931       4.52670894  T        2      -1.37419238      -2.20471237       1.44546733
Fe       8.18843950       2.27241864       4.55718571  T        2       1.66582058       1.22786491       0.68582706
Fe      14.27074539       5.47951406       4.63376143  T        2       1.62091537      -1.19773947       0.53930296
Fe       6.15480685       6.02732589       4.51954328  T        2      -1.40853064      -1.93264607       1.33759891
Fe      10.00301689       6.08046167       4.51776496  T        2      -0.52713499      -0.34267027       1.06914084
Fe      16.24393408       8.97650926       4.63136785  T        2       0.64642578      -0.03253707       0.83290183
Fe       8.22180100       9.95982481       4.48750516  T        2       2.78773951       2.17979303       0.33735127
Fe      12.24776482       9.00200328       4.50462750  T        2       1.24441771       0.72314747      -2.49039264
Fe      17.91019857      10.24777297       5.13843188  T        1       0.03796262      -0.92943137      -1.10647730
Fe      10.54253143      10.36338811       5.18141810  T        1       1.28702487       1.73193165      -0.62535734
Fe      14.25425683       9.95809895       5.17564574  T        1       1.29075904      -0.11532190       3.29582288
Fe       2.05651823       3.36302467       5.31748522  T        1       0.74835087      -0.23227669       2.95604104
Fe       6.24175080       4.07492146       5.36090103  T        1       0.55631104       2.64780005       2.68742693
Fe       9.99942598       3.88896530       5.14785726  T        1       0.54832537      -1.48773814      -1.65603444
Fe       3.98311125       6.77078529       5.29296356  T        1       4.88138990       1.67959825       2.04973734
Fe       8.17934598       7.60490993       5.18089613  T        1       1.67731356      -1.15603652      -0.35547795
Fe      12.45339999       6.78041023       5.26728802  T        1       0.50750937       2.02595326       1.17506064
N        7.60653892       3.23109942       6.33387601  T        0      -0.17465471       0.16754539       0.17026869
N        8.80528374       3.31677992       6.30969861  T        0       0.61563819       0.44696691       0.31002376
74
Lattice="12.176378772032349 0.0 0.0 6.088189386016174 10.545053342681582 0.0 0.0 0.0 20.0" Properties=species:S:1:pos:R:3:move_mask:L:1:tags:I:1:momenta:R:3 pbc="T T F"
Fe      12.17637877       2.34334519       0.00000000  F        8       0.00000000       0.00000000       0.00000000
Fe       4.05879292       2.34334519       0.00000000  F        8       0.00000000       0.00000000       0.00000000
Fe       8.11758585       2.34334519       0.00000000  F        8       0.00000000       0.00000000       0.00000000
Fe      14.20577523       5.85836297       0.00000000  F        8       0.00000000       0.00000000       0.00000000
Fe       6.08818939       5.85836297       0.00000000  F        8       0.00000000       0.00000000       0.00000000
Fe      10.14698231       5.85836297       0.00000000  F        8       0.00000000       0.00000000       0.00000000
Fe      16.23517169       9.37338075       0.00000000  F        8       0.00000000       0.00000000       0.00000000
Fe       8.11758585       9.37338075       0.00000000  F        8       0.00000000       0.00000000       0.00000000
Fe      12.17637877       9.37338075       0.00000000  F        8       0.00000000       0.00000000       0.00000000
Fe       0.00000000       0.00000000       0.82849764  F        7       0.00000000       0.00000000       0.00000000
Fe       4.05879292       0.00000000       0.82849764  F        7       0.00000000       0.00000000       0.00000000
Fe       8.11758585       0.00000000       0.82849764  F        7       0.00000000       0.00000000       0.00000000
Fe       2.02939646       3.51501778       0.82849764  F        7       0.00000000       0.00000000       0.00000000
Fe       6.08818939       3.51501778       0.82849764  F        7       0.00000000       0.00000000       0.00000000
Fe      10.14698231       3.51501778       0.82849764  F        7       0.00000000       0.00000000       0.00000000
Fe       4.05879292       7.03003556       0.82849764  F        7       0.00000000       0.00000000       0.00000000
Fe       8.11758585       7.03003556       0.82849764  F        7       0.00000000       0.00000000       0.00000000
Fe      12.17637877       7.03003556       0.82849764  F        7       0.00000000       0.00000000       0.00000000
Fe       2.02939646       1.17167259       1.65699527  F        6       0.00000000       0.00000000       0.00000000
Fe       6.08818939       1.17167259       1.65699527  F        6       0.00000000       0.00000000       0.00000000
Fe      10.14698231       1.17167259       1.65699527  F        6       0.00000000       0.00000000       0.00000000
Fe       4.05879292       4.68669037       1.65699527  F        6       0.00000000       0.00000000       0.00000000
Fe       8.11758585       4.68669037       1.65699527  F        6       0.00000000       0.00000000       0.00000000
Fe      12.17637877       4.68669037       1.65699527  F        6       0.00000000       0.00000000       0.00000000
Fe       6.08818939       8.20170816       1.65699527  F        6       0.00000000       0.00000000       0.00000000
Fe      10.14698231       8.20170816       1.65699527  F        6       0.00000000       0.00000000       0.00000000
Fe      14.20577523       8.20170816       1.65699527  F        6       0.00000000       0.00000000       0.00000000
Fe      12.36336352       2.50088483       2.18569942  T        5       0.87672807       0.50228667      -0.38144132
Fe       3.92150930       2.52660725       2.25453638  T        5       0.10085305       1.15697364       1.16468469
Fe       8.14242666       2.37029218       2.17382368  T        5       0.50829786      -0.29773670       1.29929791
Fe      14.30868069       5.96553085       2.13395382  T        5       2.48493631      -0.87112276      -1.90940903
Fe       6.05626868       5.53769498       2.26867893  T        5      -0.82604686      -1.70023933       0.85110089
Fe      10.17116609       5.42063383       2.19362007  T        5       0.73405795      -3.82134056      -0.55716146
Fe      16.34870418       9.42184762       2.35326265  T        5       1.64314209      -0.19422868       0.95952914
Fe       7.99574574       9.31996398       2.29720367  T        5      -2.68898070       0.71583531       1.63466414
Fe      12.02487105       9.31249719       2.24893746  T        5      -2.49160235      -2.68279822      -1.42919768
Fe       0.18649572       0.24747227       3.03019849  T        4       0.71970268       0.21120766      -1.12004651
Fe       3.96553475       0.27093404       2.99317436  T        4       1.34700931       0.70414040      -1.73665865
Fe       8.11828732       0.17123511       2.99229613  T        4      -0.08447790      -0.22278560       0.38582944
Fe      14.17649312       3.93883014       3.16314982  T        4      -0.95606848       1.49984427       2.37107815
Fe       6.09616018       3.08556651       3.18263090  T        4      -0.25731238      -1.31689155       1.62414314
Fe      10.05427326       3.34097037       3.17043709  T        4      -1.30753279       3.51699189      -0.08048851
Fe       4.27425354       7.02517590       3.05451041  T        4      -1.54773505      -0.60325135      -0.24929249
Fe       8.02902223       6.80865062       2.97968960  T        4      -2.01653279      -1.49017019      -1.70353236
Fe      11.95127277       6.91131617       3.02937701  T        4       1.44359946      -3.46517174      -0.72521852
Fe       2.01649705       1.59275824       3.95184493  T        3      -0.16274453       1.87939763       0.40205974
Fe       6.02937826       0.82596980       3.95471263  T        3      -0.44535536      -0.16636515      -1.06192235
Fe      10.23444319       0.76736867       4.02902235  T        3       1.06087830      -1.41959173       0.58751069
Fe       4.20071918       4.70566266       3.94693523  T        3      -1.72832121       0.15957086       0.16178646
Fe       8.27362945       4.75079375       3.88019876  T        3       3.28345901       1.61029813      -0.17820431
Fe      11.96617262       4.73970419       3.99582717  T        3       0.54866960       1.20241575       1.34427155
Fe       6.34814310       8.45910854       4.02916196  T        3       1.53900108       0.51263198       2.33274829
Fe       9.97901603       8.44556559       3.93836902  T        3       0.90892867       0.43760774       0.21249463
Fe      14.26581697       7.88222465       3.98841788  T        3       1.38145910      -0.11720951       1.60129746
Fe      12.01211441       2.13842305       4.44010976  T        2       0.77019716      -2.89119807      -0.78696207
Fe       4.20329579       2.17710511       4.52797528  T        2      -1.36511297      -2.17986336       1.44018005
Fe       8.18989172       2.27348625       4.55778023  T        2       1.64324858       1.20499232       0.66926717
Fe      14.27216099       5.47849106       4.63425082  T        2       1.60472019      -1.13308135       0.57613474
Fe       6.15357361       6.02564524       4.52071040  T        2      -1.40164718      -1.89683182       1.32183309
Fe      10.00255911       6.08017805       4.51869186  T        2      -0.51590185      -0.30336747       1.04294229
Fe      16.24448931       8.97647410       4.63209675  T        2       0.61862370      -0.04767438       0.82804907
Fe       8.22424222       9.96172844       4.48780171  T        2       2.77505438       2.15797686       0.33843328
Fe      12.24885811       9.00263265       4.50244781  T        2       1.24694832       0.71098662      -2.47646392
Fe      17.91024321      10.24696737       5.13748444  T        1       0.06396718      -0.90614926      -1.05223107
Fe      10.54365429      10.36490031       5.18087332  T        1       1.27158883       1.71383185      -0.61597883
Fe      14.25538731       9.95799911       5.17851710  T        1       1.28528641      -0.11221388       3.24700605
Fe       2.05717434       3.36282046       5.32007472  T        1       0.74675755      -0.23305947       2.94456305
Fe       6.24224152       4.07722750       5.36324318  T        1       0.56198710       2.60667529       2.64964182
Fe       9.99992656       3.88767174       5.14643846  T        1       0.59233921      -1.45996404      -1.57622432
Fe       3.98738258       6.77225247       5.29475138  T        1       4.85179235       1.66367746       2.02410587
Fe       8.18081560       7.60389763       5.18057361  T        1       1.67152875      -1.15070401      -0.37950823
Fe      12.45384931       6.78218326       5.26830463  T        1       0.51639502       2.01429345       1.14136111
N        7.60569997       3.23168634       6.33448550  T        0      -0.29952712       0.16827835       0.17768137
N        8.80759581       3.31832569       6.31080793  T        0       0.70063497       0.43607437       0.32385263
74
Lattice="12.176378772032349 0.0 0.0 6.088189386016174 10.545053342681582 0.0 0.0 0.0 20.0" Properties=species:S:1:pos:R:3:move_mask:L:1:tags:I:1:momenta:R:3 pbc="T T F"
Fe      12.17637877       2.34334519       0.00000000  F        8       0.00000000       0.00000000       0.00000000
Fe       4.05879292       2.34334519       0.00000000  F        8       0.00000000       0.00000000       0.00000000
Fe       8.11758585       2.34334519       0.00000000  F        8       0.00000000       0.00000000       0.00000000
Fe      14.20577523       5.85836297       0.00000000  F        8       0.00000000       0.00000000       0.00000000
Fe       6.08818939       5.85836297       0.00000000  F        8       0.00000000       0.00000000       0.00000000
Fe      10.14698231       5.85836297       0.00000000  F        8       0.00000000       0.00000000       0.00000000
Fe      16.23517169       9.37338075       0.00000000  F        8       0.00000000       0.00000000       0.00000000
Fe       8.11758585       9.37338075       0.00000000  F        8       0.00000000       0.00000000       0.00000000
Fe      12.17637877       9.37338075       0.00000000  F        8       0.00000000       0.00000000       0.00000000
Fe       0.00000000       0.00000000       0.82849764  F        7       0.00000000       0.00000000       0.00000000
Fe       4.05879292       0.00000000       0.82849764  F        7       0.00000000       0.00000000       0.00000000
Fe       8.11758585       0.00000000       0.82849764  F        7       0.00000000       0.00000000       0.00000000
Fe       2.02939646       3.51501778       0.82849764  F        7       0.00000000       0.00000000       0.00000000
Fe       6.08818939       3.51501778       0.82849764  F        7       0.00000000       0.00000000       0.00000000
Fe      10.14698231       3.51501778       0.82849764  F        7       0.00000000       0.00000000       0.00000000
Fe       4.05879292       7.03003556       0.82849764  F        7       0.00000000       0.00000000       0.00000000
Fe       8.11758585       7.03003556       0.82849764  F        7       0.00000000       0.00000000       0.00000000
Fe      12.17637877       7.03003556       0.82849764  F        7       0.00000000       0.00000000       0.00000000
Fe       2.02939646       1.17167259       1.65699527  F        6       0.00000000       0.00000000       0.00000000
Fe       6.08818939       1.17167259       1.65699527  F        6       0.00000000       0.00000000       0.00000000
Fe      10.14698231       1.17167259       1.65699527  F        6       0.00000000       0.00000000       0.00000000
Fe       4.05879292       4.68669037       1.65699527  F        6       0.00000000       0.00000000       0.00000000
Fe       8.11758585       4.68669037       1.65699527  F        6       0.00000000       0.00000000       0.00000000
Fe      12.17637877       4.68669037       1.65699527  F        6       0.00000000       0.00000000       0.00000000
Fe       6.08818939       8.20170816       1.65699527  F        6       0.00000000       0.00000000       0.00000000
Fe      10.14698231       8.20170816       1.65699527  F        6       0.00000000       0.00000000       0.00000000
Fe      14.20577523       8.20170816       1.65699527  F        6       0.00000000       0.00000000       0.00000000
Fe      12.36413660       2.50133497       2.18536466  T        5       0.87262221       0.51647056      -0.37604297
Fe       3.92159569       2.52763834       2.25556802  T        5       0.09457120       1.17647871       1.16987969
Fe       8.14287418       2.37002635       2.17497384  T        5       0.50432527      -0.30390291       1.30345146
Fe      14.31088127       5.96476738       2.13226238  T        5       2.49480905      -0.85639524      -1.91819736
Fe       6.05553928       5.53618802       2.26943388  T        5      -0.82446012      -1.71000090       0.85735103
Fe      10.17181715       5.41727168       2.19313911  T        5       0.73928494      -3.78613715      -0.53095730
Fe      16.35015857       9.42167385       2.35410945  T        5       1.64804398      -0.19908393       0.95661801
Fe       7.99337208       9.32059407       2.29864888  T        5      -2.68222333       0.70992658       1.63567079
Fe      12.02266717       9.31012377       2.24767230  T        5      -2.49558003      -2.68807743      -1.43381369
Fe       0.18713370       0.24765614       3.02920294  T        4       0.72399040       0.20477752      -1.13286202
Fe       3.96672112       0.27155241       2.99164081  T        4       1.33747547       0.69504265      -1.73353269
Fe       8.11820955       0.17102868       2.99265012  T        4      -0.09158496      -0.24464632       0.41550760
Fe      14.17563801       3.94014131       3.16523170  T        4      -0.97933939       1.46679012       2.33972251
Fe       6.09593395       3.08440967       3.18408182  T        4      -0.25459710      -1.30073011       1.65950046
Fe      10.05312763       3.34405431       3.17033587  T        4      -1.28467386       3.46081885      -0.14937596
Fe       4.27288543       7.02464277       3.05429432  T        4      -1.54822326      -0.60318577      -0.23958730
Fe       8.02723916       6.80734530       2.97818858  T        4      -2.01844774      -1.46329667      -1.69306195
Fe      11.95255226       6.90824544       3.02874307  T        4       1.45190426      -3.48372098      -0.70914904
Fe       2.01635744       1.59442064       3.95219706  T        3      -0.15305050       1.88250773       0.39467239
Fe       6.02899814       0.82582390       3.95377093  T        3      -0.41439594      -0.16373250      -1.06917066
Fe      10.23536627       0.76611730       4.02953742  T        3       1.02751675      -1.41203289       0.57792501
Fe       4.19919678       4.70579796       3.94708365  T        3      -1.71651311       0.14643383       0.17421118
Fe       8.27652175       4.75221738       3.88004660  T        3       3.26110492       1.61126055      -0.16585097
Fe      11.96666492       4.74076955       3.99702335  T        3       0.56561631       1.20843705       1.36283392
Fe       6.34951656       8.45954932       4.03122324  T        3       1.56939513       0.48447515       2.33175322
Fe       9.97981839       8.44594786       3.93855438  T        3       0.90674261       0.42733251       0.20692410
Fe      14.26703841       7.88211698       3.98983456  T        3       1.38253126      -0.12655206       1.60455594
Fe      12.01279436       2.13587139       4.43941375  T        2       0.76842869      -2.88276500      -0.78796704
Fe       4.20208498       2.17517625       4.52925456  T        2      -1.37498987      -2.18498728       1.45491020
Fe       8.19134406       2.27454855       4.55836869  T        2       1.64322980       1.19903259       0.66278958
Fe      14.27358185       5.47751126       4.63477979  T        2       1.61054477      -1.08357371       0.62145545
Fe       6.15232934       6.02397311       4.52187972  T        2      -1.41416683      -1.88679758       1.32421812
Fe      10.00210499       6.07992545       4.51960844  T        2      -0.51160026      -0.26778532       1.03112195
Fe      16.24502754       8.97642499       4.63283149  T        2       0.59909489      -0.06366469       0.83467868
Fe       8.22670611       9.96363919       4.48810337  T        2       2.80077408       2.16598487       0.34426880
Fe      12.24996889       9.00326000       4.50025017  T        2       1.26688819       0.70864742      -2.49682457
Fe      17.91031163      10.24617128       5.13657199  T        1       0.09127201      -0.89516521      -1.01211532
Fe      10.54477905      10.36641743       5.18032931  T        1       1.27365831       1.71928841      -0.61501307
Fe      14.25652867       9.95790060       5.18138506  T        1       1.29768176      -0.11072292       3.24289342
Fe       2.05783818       3.36261272       5.32268995  T        1       0.75556330      -0.23705148       2.97367958
Fe       6.24274416       4.07952895       5.36558446  T        1       0.57568624       2.60105069       2.64857396
Fe      10.00047298       3.88638471       5.14507117  T        1       0.64453402      -1.45253083      -1.51673158
Fe       3.99168714       6.77372595       5.29654131  T        1       4.88961442       1.67078744       2.02637241
Fe       8.18230052       7.60287598       5.18022533  T        1       1.68891668      -1.16132979      -0.40890086
Fe      12.45431276       6.78397064       5.26930545  T        1       0.53251852       2.03060207       1.12321320
N        7.60442809       3.23228531       6.33512817  T        0      -0.41696355       0.17215039       0.18668023
N        8.81022125       3.31985302       6.31198087  T        0       0.78404820       0.43028030       0.34185668
74
Lattice="12.176378772032349 0.0 0.0 6.088189386016174 10.545053342681582 0.0 0.0 0.0 20.0" Properties=species:S:1:pos:R:3:move_mask:L:1:tags:I:1:momenta:R:3 pbc="T T F"
Fe      12.17637877       2.34334519       0.00000000  F        8       0.00000000       0.00000000       0.00000000
Fe       4.05879292       2.34334519       0.00000000  F        8       0.00000000       0.00000000       0.00000000
Fe       8.11758585       2.34334519       0.00000000  F        8       0.00000000       0.00000000       0.00000000
Fe      14.20577523       5.85836297       0.00000000  F        8       0.00000000       0.00000000       0.00000000
Fe       6.08818939       5.85836297       0.00000000  F        8       0.00000000       0.00000000       0.00000000
Fe      10.14698231       5.85836297       0.00000000  F        8       0.00000000       0.00000000       0.00000000
Fe      16.23517169       9.37338075       0.00000000  F        8       0.00000000       0.00000000       0.00000000
Fe       8.11758585       9.37338075       0.00000000  F        8       0.00000000       0.00000000       0.00000000
Fe      12.17637877       9.37338075       0.00000000  F        8       0.00000000       0.00000000       0.00000000
Fe       0.00000000       0.00000000       0.82849764  F        7       0.00000000       0.00000000       0.00000000
Fe       4.05879292       0.00000000       0.82849764  F        7       0.00000000       0.00000000       0.00000000
Fe       8.11758585       0.00000000       0.82849764  F        7       0.00000000       0.00000000       0.00000000
Fe       2.02939646       3.51501778       0.82849764  F        7       0.00000000       0.00000000       0.00000000
Fe       6.08818939       3.51501778       0.82849764  F        7       0.00000000       0.00000000       0.00000000
Fe      10.14698231       3.51501778       0.82849764  F        7       0.00000000       0.00000000       0.00000000
Fe       4.05879292       7.03003556       0.82849764  F        7       0.00000000       0.00000000       0.00000000
Fe       8.11758585       7.03003556       0.82849764  F        7       0.00000000       0.00000000       0.00000000
Fe      12.17637877       7.03003556       0.82849764  F        7       0.00000000       0.00000000       0.00000000
Fe       2.02939646       1.17167259       1.65699527  F        6       0.00000000       0.00000000       0.00000000
Fe       6.08818939       1.17167259       1.65699527  F        6       0.00000000       0.00000000       0.00000000
Fe      10.14698231       1.17167259       1.65699527  F        6       0.00000000       0.00000000       0.00000000
Fe       4.05879292       4.68669037       1.65699527  F        6       0.00000000       0.00000000       0.00000000
Fe       8.11758585       4.68669037       1.65699527  F        6       0.00000000       0.00000000       0.00000000
Fe      12.17637877       4.68669037       1.65699527  F        6       0.00000000       0.00000000       0.00000000
Fe       6.08818939       8.20170816       1.65699527  F        6       0.00000000       0.00000000       0.00000000
Fe      10.14698231       8.20170816       1.65699527  F        6       0.00000000       0.00000000       0.00000000
Fe      14.20577523       8.20170816       1.65699527  F        6       0.00000000       0.00000000       0.00000000
Fe      12.36490079       2.50179468       2.18503696  T        5       0.86241868       0.52736776      -0.36798087
Fe       3.92167591       2.52867982       2.25659733  T        5       0.08751655       1.18829984       1.16719011
Fe       8.14331512       2.36975680       2.17611994  T        5       0.49678039      -0.30814834       1.29874095
Fe      14.31307573       5.96402216       2.13057457  T        5       2.48765989      -0.83551853      -1.91392414
Fe       6.05481625       5.53468252       2.27018931  T        5      -0.81708754      -1.70825941       0.85787587
Fe      10.17246847       5.41396389       2.19268470  T        5       0.73954597      -3.72345659      -0.50061244
Fe      16.35160750       9.42149690       2.35494790  T        5       1.64172157      -0.20272228       0.94700372
Fe       7.99102053       9.32121464       2.30008519  T        5      -2.65672397       0.69898968       1.62540537
Fe      12.02047465       9.30776167       2.24641155  T        5      -2.48244695      -2.67500984      -1.42874781
Fe       0.18777115       0.24783302       3.02820275  T        4       0.72331636       0.19673305      -1.13805453
Fe       3.96789095       0.27215848       2.99012043  T        4       1.31843415       0.68093298      -1.71834427
Fe       8.11812598       0.17080412       2.99302812  T        4      -0.09822435      -0.26542551       0.44288073
Fe      14.17476784       3.94141415       3.16727165  T        4      -0.99661290       1.42287119       2.29172730
Fe       6.09571166       3.08327505       3.18555440  T        4      -0.25005922      -1.27525127       1.68415859
Fe      10.05201008       3.34706721       3.17017394  T        4      -1.25251260       3.37919912      -0.21881898
Fe       4.27152608       7.02411328       3.05408833  T        4      -1.53819375      -0.59899506      -0.22802539
Fe       8.02546638       6.80607276       2.97670698  T        4      -2.00665673      -1.42568302      -1.67082852
Fe      11.95383055       6.90517898       3.02812772  T        4       1.45052089      -3.47862779      -0.68787981
Fe       2.01622742       1.59607461       3.95254022  T        3      -0.14204878       1.87281198       0.38437878
Fe       6.02864823       0.82568136       3.95282910  T        3      -0.37974721      -0.15982905      -1.06929896
Fe      10.23625334       0.76488113       4.03004047  T        3       0.98623522      -1.39458753       0.56414401
Fe       4.19769524       4.70592063       3.94724214  T        3      -1.69253472       0.13194948       0.18571923
Fe       8.27937446       4.75363226       3.87990659  T        3       3.21550443       1.60116837      -0.15180882
Fe      11.96716905       4.74183306       3.99822804  T        3       0.57919292       1.20622887       1.37255058
Fe       6.35090786       8.45996203       4.03326976  T        3       1.58978624       0.45234393       2.31482535
Fe       9.98061341       8.44631841       3.93873356  T        3       0.89836193       0.41394868       0.19987228
Fe      14.26825254       7.88200171       3.99124459  T        3       1.37409876      -0.13525033       1.59692980
Fe      12.01346814       2.13334455       4.43872162  T        2       0.76132980      -2.85416527      -0.78342122
Fe       4.20087350       2.17325587       4.53053836  T        2      -1.37574379      -2.17517045       1.46006257
Fe       8.19278656       2.27559855       4.55894785  T        2       1.63187846       1.18516191       0.65268362
Fe      14.27499825       5.47658216       4.63534563  T        2       1.60533806      -1.02553972       0.66367935
Fe       6.15108231       6.02232131       4.52304324  T        2      -1.41726859      -1.86335236       1.31750830
Fe      10.00165783       6.07970630       4.52050836  T        2      -0.50355856      -0.22943746       1.01209426
Fe      16.24554472       8.97636195       4.63356719  T        2       0.57496071      -0.07962565       0.83576354
Fe       8.22917628       9.96554420       4.48840820  T        2       2.80785070       2.15937462       0.34792003
Fe      12.25108996       9.00388106       4.49804921  T        2       1.27866231       0.70145796      -2.50054836
Fe      17.91040400      10.24539038       5.13570142  T        1       0.11873639      -0.87772291      -0.96418239
Fe      10.54589806      10.36792914       5.17978987  T        1       1.26702992       1.71299818      -0.60975198
Fe      14.25767340       9.95780405       5.18423003  T        1       1.30152936      -0.10852754       3.21650516
Fe       2.05850540       3.36240285       5.32531338  T        1       0.75943246      -0.23946597       2.98285618
Fe       6.24325569       4.08180971       5.36790911  T        1       0.58595641       2.57711140       2.62961367
Fe      10.00106202       3.88511285       5.14376647  T        1       0.69299945      -1.43529000      -1.44466957
Fe       3.99599649       6.77519586       5.29832119  T        1       4.89507586       1.66667188       2.01481856
Fe       8.18379092       7.60185174       5.17985326  T        1       1.69512792      -1.16425783      -0.43602203
Fe      12.45478743       6.78576052       5.27028336  T        1       0.54534156       2.03345729       1.09696253
N        7.60277134       3.23289547       6.33579668  T        0      -0.51999213       0.17582243       0.19352409
N        8.81310272       3.32134784       6.31320903  T        0       0.85041977       0.42040990       0.35744931
74
Lattice="12.176378772032349 0.0 0.0 6.088189386016174 10.545053342681582 0.0 0.0 0.0 20.0" Properties=species:S:1:pos:R:3:move_mask:L:1:tags:I:1:momenta:R:3 pbc="T T F"
Fe      12.17637877       2.34334519       0.00000000  F        8       0.00000000       0.00000000       0.00000000
Fe       4.05879292       2.34334519       0.00000000  F        8       0.00000000       0.00000000       0.00000000
Fe       8.11758585       2.34334519       0.00000000  F        8       0.00000000       0.00000000       0.00000000
Fe      14.20577523       5.85836297       0.00000000  F        8       0.00000000       0.00000000       0.00000000
Fe       6.08818939       5.85836297       0.00000000  F        8       0.00000000       0.00000000       0.00000000
Fe      10.14698231       5.85836297       0.00000000  F        8       0.00000000       0.00000000       0.00000000
Fe      16.23517169       9.37338075       0.00000000  F        8       0.00000000       0.00000000       0.00000000
Fe       8.11758585       9.37338075       0.00000000  F        8       0.00000000       0.00000000       0.00000000
Fe      12.17637877       9.37338075       0.00000000  F        8       0.00000000       0.00000000       0.00000000
Fe       0.00000000       0.00000000       0.82849764  F        7       0.00000000       0.00000000       0.00000000
Fe       4.05879292       0.00000000       0.82849764  F        7       0.00000000       0.00000000       0.00000000
Fe       8.11758585       0.00000000       0.82849764  F        7       0.00000000       0.00000000       0.00000000
Fe       2.02939646       3.51501778       0.82849764  F        7       0.00000000       0.00000000       0.00000000
Fe       6.08818939       3.51501778       0.82849764  F        7       0.00000000       0.00000000       0.00000000
Fe      10.14698231       3.51501778       0.82849764  F        7       0.00000000       0.00000000       0.00000000
Fe       4.05879292       7.03003556       0.82849764  F        7       0.00000000       0.00000000       0.00000000
Fe       8.11758585       7.03003556       0.82849764  F        7       0.00000000       0.00000000       0.00000000
Fe      12.17637877       7.03003556       0.82849764  F        7       0.00000000       0.00000000       0.00000000
Fe       2.02939646       1.17167259       1.65699527  F        6       0.00000000       0.00000000       0.00000000
Fe       6.08818939       1.17167259       1.65699527  F        6       0.00000000       0.00000000       0.00000000
Fe      10.14698231       1.17167259       1.65699527  F        6       0.00000000       0.00000000       0.00000000
Fe       4.05879292       4.68669037       1.65699527  F        6       0.00000000       0.00000000       0.00000000
Fe       8.11758585       4.68669037       1.65699527  F        6       0.00000000       0.00000000       0.00000000
Fe      12.17637877       4.68669037       1.65699527  F        6       0.00000000       0.00000000       0.00000000
Fe       6.08818939       8.20170816       1.65699527  F        6       0.00000000       0.00000000       0.00000000
Fe      10.14698231       8.20170816       1.65699527  F        6       0.00000000       0.00000000       0.00000000
Fe      14.20577523       8.20170816       1.65699527  F        6       0.00000000       0.00000000       0.00000000
Fe      12.36564971       2.50226024       2.18471904  T        5       0.84494786       0.53402540      -0.35680651
Fe       3.92174924       2.52972321       2.25761586  T        5       0.07965306       1.19046917       1.15488549
Fe       8.14374578       2.36948570       2.17725249  T        5       0.48501080      -0.30995025       1.28326081
Fe      14.31524588       5.96330146       2.12890439  T        5       2.45980778      -0.80751576      -1.89373397
Fe       6.05410570       5.53319087       2.27093903  T        5      -0.80278786      -1.69244831       0.85137023
Fe      10.17311469       5.41073886       2.19226078  T        5       0.73371550      -3.62847894      -0.46578885
Fe      16.35303898       9.42131817       2.35577097  T        5       1.62177147      -0.20478736       0.92938032
Fe       7.98871084       9.32182045       2.30150066  T        5      -2.60879330       0.68211256       1.60154044
Fe      12.01831170       9.30543045       2.24516556  T        5      -2.44861211      -2.63971553      -1.41190422
Fe       0.18840276       0.24800131       3.02720622  T        4       0.71658662       0.18688405      -1.13381459
Fe       3.96903432       0.27274711       2.98862596  T        4       1.28814332       0.66097353      -1.68869107
Fe       8.11803722       0.17056299       2.99342716  T        4      -0.10415725      -0.28444420       0.46689983
Fe      14.17388944       3.94263774       3.16925255  T        4      -1.00614674       1.36654602       2.22429491
Fe       6.09549522       3.08217223       3.18703668  T        4      -0.24338237      -1.23886946       1.69522322
Fe      10.05093009       3.34998313       3.16995195  T        4      -1.20959589       3.26811169      -0.28749274
Fe       4.27018666       7.02359183       3.05389425  T        4      -1.51545174      -0.58982915      -0.21442029
Fe       8.02371847       6.80484393       2.97525710  T        4      -1.97828286      -1.37567995      -1.63460418
Fe      11.95509721       6.90214217       3.02753618  T        4       1.43727101      -3.44467872      -0.66065958
Fe       2.01610821       1.59770650       3.95287145  T        3      -0.12967336       1.84760544       0.37073619
Fe       6.02833188       0.82554347       3.95189484  T        3      -0.34130459      -0.15446406      -1.06068927
Fe      10.23709662       0.76367049       4.03052722  T        3       0.93610591      -1.36538581       0.54550167
Fe       4.19622722       4.70602947       3.94740950  T        3      -1.65414994       0.11611576       0.19586902
Fe       8.28216337       4.75502664       3.87978025  T        3       3.14240379       1.57772339      -0.13601742
Fe      11.96768112       4.74288589       3.99943150  T        3       0.58834595       1.19398906       1.37121084
Fe       6.35230585       8.46034296       4.03528461  T        3       1.59748396       0.41599760       2.27869187
Fe       9.98139457       8.44667413       3.93890506  T        3       0.88254258       0.39701388       0.19113366
Fe      14.26944927       7.88187968       3.99263638  T        3       1.35419259      -0.14297990       1.57610365
Fe      12.01413012       2.13086374       4.43803924  T        2       0.74784062      -2.80145999      -0.77219464
Fe       4.19967123       2.17135990       4.53181625  T        2      -1.36528108      -2.14724851       1.45335630
Fe       8.19420720       2.27662792       4.55951383  T        2       1.60687248       1.16182824       0.63821434
Fe      14.27639842       5.47571194       4.63594422  T        2       1.58673491      -0.95823400       0.70121543
Fe       6.14984274       6.02070385       4.52419129  T        2      -1.40875688      -1.82397813       1.29978991
Fe      10.00122150       6.07952290       4.52138416  T        2      -0.49111747      -0.18850654       0.98458340
Fe      16.24603631       8.97628529       4.63429784  T        2       0.54568661      -0.09521191       0.83002434
Fe       8.23163250       9.96742782       4.48871379  T        2       2.79192985       2.13496237       0.34881148
Fe      12.25221231       9.00449071       4.49586295  T        2       1.28017422       0.68845662      -2.48379556
Fe      17.91051996      10.24463131       5.13488033  T        1       0.14580157      -0.85273024      -0.90764142
Fe      10.54700206      10.36942289       5.17925950  T        1       1.24987594       1.69244858      -0.59934273
Fe      14.25881221       9.95771019       5.18702843  T        1       1.29480704      -0.10549435       3.16332432
Fe       2.05917061       3.36219258       5.32792338  T        1       0.75716363      -0.23989926       2.96742711
Fe       6.24377222       4.08405050       5.37019813  T        1       0.59180417       2.53124986       2.58905946
Fe      10.00168885       3.88386649       5.14253649  T        1       0.73597738      -1.40630878      -1.35884299
Fe       4.00027558       6.77665014       5.30007632  T        1       4.86068918       1.64886033       1.98655095
Fe       8.18527463       7.60083328       5.17946032  T        1       1.68750766      -1.15768266      -0.45983490
Fe      12.45526956       6.78753835       5.27123008  T        1       0.55386425       2.01974035       1.06130528
N        7.60079070       3.23351520       6.33648189  T        0      -0.60520636       0.17905676       0.19771414
N        8.81617002       3.32279383       6.31448126  T        0       0.89636462       0.40584901       0.36983815
74
Lattice="12.176378772032349 0.0 0.0 6.088189386016174 10.545053342681582 0.0 0.0 0.0 20.0" Properties=species:S:1:pos:R:3:move_mask:L:1:tags:I:1:momenta:R:3 pbc="T T F"
Fe      12.17637877       2.34334519       0.00000000  F        8       0.00000000       0.00000000       0.00000000
Fe       4.05879292       2.34334519       0.00000000  F        8       0.00000000       0.00000000       0.00000000
Fe       8.11758585       2.34334519       0.00000000  F        8       0.00000000       0.00000000       0.00000000
Fe      14.20577523       5.85836297       0.00000000  F        8       0.00000000       0.00000000       0.00000000
Fe       6.08818939       5.85836297       0.00000000  F        8       0.00000000       0.00000000       0.00000000
Fe      10.14698231       5.85836297       0.00000000  F        8       0.00000000       0.00000000       0.00000000
Fe      16.23517169       9.37338075       0.00000000  F        8       0.00000000       0.00000000       0.00000000
Fe       8.11758585       9.37338075       0.00000000  F        8       0.00000000       0.00000000       0.00000000
Fe      12.17637877       9.37338075       0.00000000  F        8       0.00000000       0.00000000       0.00000000
Fe       0.00000000       0.00000000       0.82849764  F        7       0.00000000       0.00000000       0.00000000
Fe       4.05879292       0.00000000       0.82849764  F        7       0.00000000       0.00000000       0.00000000
Fe       8.11758585       0.00000000       0.82849764  F        7       0.00000000       0.00000000       0.00000000
Fe       2.02939646       3.51501778       0.82849764  F        7       0.00000000       0.00000000       0.00000000
Fe       6.08818939       3.51501778       0.82849764  F        7       0.00000000       0.00000000       0.00000000
Fe      10.14698231       3.51501778       0.82849764  F        7       0.00000000       0.00000000       0.00000000
Fe       4.05879292       7.03003556       0.82849764  F        7       0.00000000       0.00000000       0.00000000
Fe       8.11758585       7.03003556       0.82849764  F        7       0.00000000       0.00000000       0.00000000
Fe      12.17637877       7.03003556       0.82849764  F        7       0.00000000       0.00000000       0.00000000
Fe       2.02939646       1.17167259       1.65699527  F        6       0.00000000       0.00000000       0.00000000
Fe       6.08818939       1.17167259       1.65699527  F        6       0.00000000       0.00000000       0.00000000
Fe      10.14698231       1.17167259       1.65699527  F        6       0.00000000       0.00000000       0.00000000
Fe       4.05879292       4.68669037       1.65699527  F        6       0.00000000       0.00000000       0.00000000
Fe       8.11758585       4.68669037       1.65699527  F        6       0.00000000       0.00000000       0.00000000
Fe      12.17637877       4.68669037       1.65699527  F        6       0.00000000       0.00000000       0.00000000
Fe       6.08818939       8.20170816       1.65699527  F        6       0.00000000       0.00000000       0.00000000
Fe      10.14698231       8.20170816       1.65699527  F        6       0.00000000       0.00000000       0.00000000
Fe      14.20577523       8.20170816       1.65699527  F        6       0.00000000       0.00000000       0.00000000
Fe      12.36638680       2.50273387       2.18440944  T        5       0.83139041       0.54321000      -0.34730544
Fe       3.92181599       2.53077349       2.25862842  T        5       0.07213972       1.19828783       1.14805791
Fe       8.14416811       2.36921170       2.17837680  T        5       0.47546206      -0.31327468       1.27380786
Fe      14.31740178       5.96260198       2.12724408  T        5       2.44341407      -0.78326769      -1.88235918
Fe       6.05340439       5.53170602       2.27168661  T        5      -0.79214435      -1.68464341       0.84891692
Fe      10.17375885       5.40758250       2.19186552  T        5       0.73134722      -3.54953473      -0.43307832
Fe      16.35445970       9.42113674       2.35658240  T        5       1.60942834      -0.20788437       0.91601952
Fe       7.98643246       9.32241426       2.30290181  T        5      -2.57284788       0.66836772       1.58511267
Fe      12.01616829       9.30311922       2.24392844  T        5      -2.42619323      -2.61680252      -1.40176158
Fe       0.18903141       0.24816169       3.02620872  T        4       0.71314349       0.17780302      -1.13481223
Fe       3.97015639       0.27332093       2.98715054  T        4       1.26371004       0.64402007      -1.66682951
Fe       8.11794280       0.17030387       2.99384925  T        4      -0.11062757      -0.30505444       0.49317608
Fe      14.17299834       3.94381749       3.17118350  T        4      -1.02074971       1.31638888       2.16724344
Fe       6.09528363       3.08109625       3.18853578  T        4      -0.23781662      -1.20816085       1.71435246
Fe      10.04988277       3.35281481       3.16966833  T        4      -1.17223795       3.17152978      -0.35790163
Fe       4.26886086       7.02307595       3.05371123  T        4      -1.49990750      -0.58344390      -0.20176439
Fe       8.02198718       6.80365336       2.97383221  T        4      -1.95930054      -1.33185576      -1.60606327
Fe      11.95635827       6.89912085       3.02696582  T        4       1.43089988      -3.42682766      -0.63646113
Fe       2.01599937       1.59932398       3.95319223  T        3      -0.11780330       1.83112352       0.35875162
Fe       6.02804798       0.82540970       3.95096367  T        3      -0.30411069      -0.14971684      -1.05715961
Fe      10.23789967       0.76247983       4.03099984  T        3       0.89003912      -1.34251949       0.52934312
Fe       4.19478610       4.70612484       3.94758661  T        3      -1.62332332       0.10069419       0.20701172
Fe       8.28490099       4.75640700       3.87966737  T        3       3.08353127       1.56164378      -0.12047627
Fe      11.96820377       4.74393292       4.00063958  T        3       0.60051057       1.18730673       1.37651127
Fe       6.35371735       8.46069364       4.03727728  T        3       1.61294373       0.38141459       2.25333023
Fe       9.98216554       8.44701664       3.93906970  T        3       0.87092634       0.38193070       0.18331810
Fe      14.27063415       7.88175025       3.99401648  T        3       1.34059810      -0.15145334       1.56274007
Fe      12.01478336       2.12841764       4.43736357  T        2       0.73782200      -2.76163629      -0.76442395
Fe       4.19847239       2.16947952       4.53309437  T        2      -1.36137306      -2.12936178       1.45363648
Fe       8.19561255       2.27764185       4.56007027  T        2       1.58933787       1.14443709       0.62793430
Fe      14.27778883       5.47489692       4.63657885  T        2       1.57549510      -0.89515421       0.74245952
Fe       6.14860474       6.01911349       4.52532917  T        2      -1.40692527      -1.79282979       1.28810494
Fe      10.00079411       6.07937478       4.52223994  T        2      -0.48081105      -0.14811752       0.96173638
Fe      16.24650442       8.97619450       4.63502695  T        2       0.51880478      -0.11138173       0.82825687
Fe       8.23408642       9.96929895       4.48902165  T        2       2.78925794       2.12067089       0.35142450
Fe      12.25334139       9.00509184       4.49368098  T        2       1.28789917       0.67873756      -2.47885739
Fe      17.91066042      10.24389069       5.13410516  T        1       0.17388676      -0.83159722      -0.85515381
Fe      10.54809621      10.37090563       5.17873581  T        1       1.23859390       1.67979451      -0.59168501
Fe      14.25995057       9.95761852       5.18979334  T        1       1.29431665      -0.10303470       3.12500815
Fe       2.05983702       3.36198094       5.33053217  T        1       0.75855546      -0.24142809       2.96587387
Fe       6.24429649       4.08626140       5.37246247  T        1       0.60078018       2.49683531       2.56097489
Fe      10.00235637       3.88263958       5.14137669  T        1       0.78219195      -1.38420354      -1.27822628
Fe       4.00454496       6.77809570       5.30181492  T        1       4.84967693       1.63890038       1.96764684
Fe       8.18675873       7.59981573       5.17904455  T        1       1.68793108      -1.15663355      -0.48586112
Fe      12.45576151       6.78931263       5.27214987  T        1       0.56508344       2.01571222       1.03051692
N        7.59852776       3.23415098       6.33718301  T        0      -0.67832318       0.18414750       0.20165722
N        8.81938785       3.32419357       6.31580226  T        0       0.93203398       0.39200718       0.38354276
74
Lattice="12.176378772032349 0.0 0.0 6.088189386016174 10.545053342681582 0.0 0.0 0.0 20.0" Properties=species:S:1:pos:R:3:move_mask:L:1:tags:I:1:momenta:R:3 pbc="T T F"
Fe      12.17637877       2.34334519       0.00000000  F        8       0.00000000       0.00000000       0.00000000
Fe       4.05879292       2.34334519       0.00000000  F        8       0.00000000       0.00000000       0.00000000
Fe       8.11758585       2.34334519       0.00000000  F        8       0.00000000       0.00000000       0.00000000
Fe      14.20577523       5.85836297       0.00000000  F        8       0.00000000       0.00000000       0.00000000
Fe       6.08818939       5.85836297       0.00000000  F        8       0.00000000       0.00000000       0.00000000
Fe      10.14698231       5.85836297       0.00000000  F        8       0.00000000       0.00000000       0.00000000
Fe      16.23517169       9.37338075       0.00000000  F        8       0.00000000       0.00000000       0.00000000
Fe       8.11758585       9.37338075       0.00000000  F        8       0.00000000       0.00000000       0.00000000
Fe      12.17637877       9.37338075       0.00000000  F        8       0.00000000       0.00000000       0.00000000
Fe       0.00000000       0.00000000       0.82849764  F        7       0.00000000       0.00000000       0.00000000
Fe       4.05879292       0.00000000       0.82849764  F        7       0.00000000       0.00000000       0.00000000
Fe       8.11758585       0.00000000       0.82849764  F        7       0.00000000       0.00000000       0.00000000
Fe       2.02939646       3.51501778       0.82849764  F        7       0.00000000       0.00000000       0.00000000
Fe       6.08818939       3.51501778       0.82849764  F        7       0.00000000       0.00000000       0.00000000
Fe      10.14698231       3.51501778       0.82849764  F        7       0.00000000       0.00000000       0.00000000
Fe       4.05879292       7.03003556       0.82849764  F        7       0.00000000       0.00000000       0.00000000
Fe       8.11758585       7.03003556       0.82849764  F        7       0.00000000       0.00000000       0.00000000
Fe      12.17637877       7.03003556       0.82849764  F        7       0.00000000       0.00000000       0.00000000
Fe       2.02939646       1.17167259       1.65699527  F        6       0.00000000       0.00000000       0.00000000
Fe       6.08818939       1.17167259       1.65699527  F        6       0.00000000       0.00000000       0.00000000
Fe      10.14698231       1.17167259       1.65699527  F        6       0.00000000       0.00000000       0.00000000
Fe       4.05879292       4.68669037       1.65699527  F        6       0.00000000       0.00000000       0.00000000
Fe       8.11758585       4.68669037       1.65699527  F        6       0.00000000       0.00000000       0.00000000
Fe      12.17637877       4.68669037       1.65699527  F        6       0.00000000       0.00000000       0.00000000
Fe       6.08818939       8.20170816       1.65699527  F        6       0.00000000       0.00000000       0.00000000
Fe      10.14698231       8.20170816       1.65699527  F        6       0.00000000       0.00000000       0.00000000
Fe      14.20577523       8.20170816       1.65699527  F        6       0.00000000       0.00000000       0.00000000
Fe      12.36712283       2.50322274       2.18410366  T        5       0.83009999       0.56054076      -0.34293306
Fe       3.92187706       2.53184643       2.25965007  T        5       0.06564487       1.22404369       1.15835678
Fe       8.14458824       2.36893062       2.17950952  T        5       0.47289398      -0.32134866       1.28328645
Fe      14.31957530       5.96191360       2.12556909  T        5       2.46324368      -0.77054678      -1.89888215
Fe       6.05270211       5.53020589       2.27244320  T        5      -0.79313669      -1.70195414       0.85915308
Fe      10.17441054       5.40444953       2.19149342  T        5       0.73987761      -3.52208300      -0.40660542
Fe      16.35589069       9.42094982       2.35739404  T        5       1.62099369      -0.21416267       0.91614165
Fe       7.98415208       9.32300472       2.30430928  T        5      -2.57479232       0.66444546       1.59213635
Fe      12.01401279       9.30079380       2.24268181  T        5      -2.43972469      -2.63274781      -1.41252459
Fe       0.18966636       0.24831635       3.02519547  T        4       0.72022241       0.17121939      -1.15261674
Fe       3.97127346       0.27388823       2.98567255  T        4       1.25779876       0.63648863      -1.66955624
Fe       8.11784120       0.17002247       2.99430101  T        4      -0.11882294      -0.33055997       0.52697474
Fe      14.17208080       3.94497022       3.17309263  T        4      -1.05096692       1.28538785       2.14217998
Fe       6.09507383       3.08003153       3.19007430  T        4      -0.23573833      -1.19516882       1.75920055
Fe      10.04885303       3.35560268       3.16931779  T        4      -1.15206019       3.12091486      -0.43428328
Fe       4.26752902       7.02255804       3.05353675  T        4      -1.50671620      -0.58573237      -0.19200193
Fe       8.02024683       6.80248405       2.97241136  T        4      -1.96952318      -1.30739623      -1.60132650
Fe      11.95763258       6.89607026       3.02640845  T        4       1.44594313      -3.45985283      -0.62155723
Fe       2.01589948       1.60095102       3.95350712  T        3      -0.10753175       1.84189293       0.35197553
Fe       6.02779303       0.82527819       3.95002168  T        3      -0.27092791      -0.14706899      -1.06946297
Fe      10.23867366       0.76129172       4.03146515  T        3       0.85669922      -1.33947837       0.52092398
Fe       4.19335090       4.70620789       3.94777630  T        3      -1.61633277       0.08657136       0.22135889
Fe       8.28762700       4.75779368       3.87956678  T        3       3.06980615       1.56870209      -0.10625615
Fe      11.96874515       4.74498965       4.00187051  T        3       0.62192684       1.19822565       1.40254240
Fe       6.35516378       8.46101878       4.03927723  T        3       1.65275227       0.35217876       2.26149637
Fe       9.98293774       8.44735086       3.93922988  T        3       0.87229343       0.37245892       0.17822399
Fe      14.27182465       7.88161132       3.99540536  T        3       1.34686361      -0.16229177       1.57265668
Fe      12.01543745       2.12597047       4.43668477  T        2       0.73870464      -2.76249712      -0.76783098
Fe       4.19725905       2.16758694       4.53439191  T        2      -1.37786927      -2.14306340       1.47573320
Fe       8.19702331       2.27865572       4.56062645  T        2       1.59532423       1.14453451       0.62821834
Fe      14.27919000       5.47412584       4.63725976  T        2       1.58758328      -0.84487633       0.79534692
Fe       6.14734984       6.01752718       4.52647365  T        2      -1.42610185      -1.78789686       1.29547886
Fe      10.00036956       6.07926046       4.52308824  T        2      -0.47744560      -0.10942461       0.95315289
Fe      16.24695557       8.97608793       4.63576541  T        2       0.49937187      -0.12941030       0.83889487
Fe       8.23657471       9.97118539       4.48933647  T        2       2.82825666       2.13799796       0.35936824
Fe      12.25449430       9.00569335       4.49147072  T        2       1.31504441       0.67913799      -2.51097164
Fe      17.91082806      10.24315783       5.13336510  T        1       0.20501515      -0.82261572      -0.81498174
Fe      10.54919670      10.37239927       5.17821111  T        1       1.24571533       1.69205092      -0.59274419
Fe      14.26110557       9.95752762       5.19256555  T        1       1.31325738      -0.10217847       3.13307696
Fe       2.06051467       3.36176480       5.33317854  T        1       0.77135976      -0.24652003       3.00841423
Fe       6.24483673       4.08847458       5.37473586  T        1       0.61910654       2.49900087       2.57123565
Fe      10.00307480       3.88141385       5.14027164  T        1       0.84000250      -1.38289903      -1.21514855
Fe       4.00886860       6.77955406       5.30356274  T        1       4.91140571       1.65341577       1.97800193
Fe       8.18826544       7.59878387       5.17859944  T        1       1.71361693      -1.17289649      -0.51928728
Fe      12.45627082       6.79110994       5.27305603  T        1       0.58486636       2.04189620       1.01482890
N        7.59599879       3.23481609       6.33790646  T        0      -0.74665925       0.19303223       0.20740339
N        8.82275423       3.32556310       6.31719074  T        0       0.96702325       0.38272747       0.40255567
74
Lattice="12.176378772032349 0.0 0.0 6.088189386016174 10.545053342681582 0.0 0.0 0.0 20.0" Properties=species:S:1:pos:R:3:move_mask:L:1:tags:I:1:momenta:R:3 pbc="T T F"
Fe      12.17637877       2.34334519       0.00000000  F        8       0.00000000       0.00000000       0.00000000
Fe       4.05879292       2.34334519       0.00000000  F        8       0.00000000       0.00000000       0.00000000
Fe       8.11758585       2.34334519       0.00000000  F        8       0.00000000       0.00000000       0.00000000
Fe      14.20577523       5.85836297       0.00000000  F        8       0.00000000       0.00000000       0.00000000
Fe       6.08818939       5.85836297       0.00000000  F        8       0.00000000       0.00000000       0.00000000
Fe      10.14698231       5.85836297       0.00000000  F        8       0.00000000       0.00000000       0.00000000
Fe      16.23517169       9.37338075       0.00000000  F        8       0.00000000       0.00000000       0.00000000
Fe       8.11758585       9.37338075       0.00000000  F        8       0.00000000       0.00000000       0.00000000
Fe      12.17637877       9.37338075       0.00000000  F        8       0.00000000       0.00000000       0.00000000
Fe       0.00000000       0.00000000       0.82849764  F        7       0.00000000       0.00000000       0.00000000
Fe       4.05879292       0.00000000       0.82849764  F        7       0.00000000       0.00000000       0.00000000
Fe       8.11758585       0.00000000       0.82849764  F        7       0.00000000       0.00000000       0.00000000
Fe       2.02939646       3.51501778       0.82849764  F        7       0.00000000       0.00000000       0.00000000
Fe       6.08818939       3.51501778       0.82849764  F        7       0.00000000       0.00000000       0.00000000
Fe      10.14698231       3.51501778       0.82849764  F        7       0.00000000       0.00000000       0.00000000
Fe       4.05879292       7.03003556       0.82849764  F        7       0.00000000       0.00000000       0.00000000
Fe       8.11758585       7.03003556       0.82849764  F        7       0.00000000       0.00000000       0.00000000
Fe      12.17637877       7.03003556       0.82849764  F        7       0.00000000       0.00000000       0.00000000
Fe       2.02939646       1.17167259       1.65699527  F        6       0.00000000       0.00000000       0.00000000
Fe       6.08818939       1.17167259       1.65699527  F        6       0.00000000       0.00000000       0.00000000
Fe      10.14698231       1.17167259       1.65699527  F        6       0.00000000       0.00000000       0.00000000
Fe       4.05879292       4.68669037       1.65699527  F        6       0.00000000       0.00000000       0.00000000
Fe       8.11758585       4.68669037       1.65699527  F        6       0.00000000       0.00000000       0.00000000
Fe      12.17637877       4.68669037       1.65699527  F        6       0.00000000       0.00000000       0.00000000
Fe       6.08818939       8.20170816       1.65699527  F        6       0.00000000       0.00000000       0.00000000
Fe      10.14698231       8.20170816       1.65699527  F        6       0.00000000       0.00000000       0.00000000
Fe      14.20577523       8.20170816       1.65699527  F        6       0.00000000       0.00000000       0.00000000
Fe      12.36784977       2.50372177       2.18380506  T        5       0.81965650       0.57208860      -0.33472756
Fe       3.92193169       2.53293075       2.26066991  T        5       0.05828666       1.23696780       1.15625583
Fe       8.14500154       2.36864535       2.18063847  T        5       0.46504894      -0.32613631       1.27892492
Fe      14.32174301       5.96124397       2.12389748  T        5       2.45643535      -0.74913632      -1.89487258
Fe       6.05200657       5.52870649       2.27320078  T        5      -0.78536346      -1.70105788       0.86025607
Fe      10.17506281       5.40137517       2.19114892  T        5       0.74050139      -3.45457281      -0.37512065
Fe      16.35731655       9.42075930       2.35819701  T        5       1.61506005      -0.21829320       0.90615392
Fe       7.98189464       9.32358529       2.30570780  T        5      -2.54835994       0.65311531       1.58181076
Fe      12.01186851       9.29847925       2.24143900  T        5      -2.42676451      -2.62021324      -1.40813314
Fe       0.19030073       0.24846345       3.02417734  T        4       0.71947589       0.16252739      -1.15805451
Fe       3.97237314       0.27444268       2.98420811  T        4       1.23783753       0.62176616      -1.65394755
Fe       8.11773338       0.16972129       2.99477799  T        4      -0.12592598      -0.35320762       0.55571934
Fe      14.17114611       3.94608286       3.17495889  T        4      -1.07062703       1.23954030       2.09321555
Fe       6.09486816       3.07898988       3.19163620  T        4      -0.23101586      -1.16872792       1.78578067
Fe      10.04785237       3.35831513       3.16890294  T        4      -1.11879985       3.03438370      -0.50765454
Fe       4.26620542       7.02204366       3.05337285  T        4      -1.49727375      -0.58167718      -0.17990023
Fe       8.01851609       6.80134920       2.97101002  T        4      -1.95853253      -1.26790667      -1.57901303
Fe      11.95890661       6.89302319       3.02587038  T        4       1.44560702      -3.45561154      -0.59950042
Fe       2.01580985       1.60257014       3.95381255  T        3      -0.09578457       1.83279564       0.34114203
Fe       6.02757050       0.82515051       3.94907885  T        3      -0.23379527      -0.14265084      -1.07042141
Fe      10.23940952       0.76011913       4.03191792  T        3       0.81304215      -1.32167952       0.50658341
Fe       4.19193747       4.70627742       3.94797673  T        3      -1.59134403       0.07109885       0.23363268
Fe       8.29031123       4.75917168       3.87948011  T        3       3.02176518       1.55869682      -0.09018322
Fe      11.96929986       4.74604468       4.00311143  T        3       0.63721383       1.19620168       1.41395639
Fe       6.35663017       8.46131433       4.04126295  T        3       1.67551672       0.31836345       2.24519249
Fe       9.98370287       8.44767306       3.93938380  T        3       0.86422206       0.35872855       0.17111116
Fe      14.27300787       7.88146422       3.99678813  T        3       1.33848442      -0.17163551       1.56564416
Fe      12.01608525       2.12354900       4.43601034  T        2       0.73148558      -2.73291831      -0.76273561
Fe       4.19604403       2.16570257       4.53569521  T        2      -1.37977140      -2.13356200       1.48229595
Fe       8.19842416       2.27965898       4.56117745  T        2       1.58392137       1.13267198       0.62294430
Fe      14.28058679       5.47340790       4.63798057  T        2       1.58246735      -0.78417501       0.84094480
Fe       6.14609137       6.01596249       4.52761233  T        2      -1.43011911      -1.76297274       1.28875807
Fe       9.99995266       6.07918193       4.52391978  T        2      -0.46862088      -0.06847623       0.93403028
Fe      16.24738451       8.97596643       4.63650542  T        2       0.47396150      -0.14648947       0.84064977
Fe       8.23907096       9.97306697       4.48965501  T        2       2.83723674       2.13239144       0.36362358
Fe      12.25565903       9.00628876       4.48925563  T        2       1.32854664       0.67218153      -2.51641929
Fe      17.91102174      10.24244091       5.13266883  T        1       0.23482124      -0.80433537      -0.76496689
Fe      10.55029167      10.37388771       5.17769115  T        1       1.23936977       1.68599894      -0.58728445
Fe      14.26226506       9.95743844       5.19531509  T        1       1.31837042      -0.10026997       3.10707570
Fe       2.06119647       3.36154647       5.33583421  T        1       0.77609094      -0.24896784       3.01880418
Fe       6.24538761       4.09066565       5.37699403  T        1       0.63138492       2.47343102       2.55393059
Fe      10.00383680       3.88020235       5.13923510  T        1       0.88944385      -1.36675319      -1.13647101
Fe       4.01320084       6.78100969       5.30530096  T        1       4.92121426       1.65025235       1.96698279
Fe       8.18977882       7.59774862       5.17812936  T        1       1.72119031      -1.17674385      -0.54772338
Fe      12.45679228       6.79291128       5.27393841  T        1       0.59873651       2.04647995       0.98764273
N        7.59328129       3.23550734       6.33864035  T        0      -0.79300310       0.20099501       0.20975990
N        8.82618273       3.32688284       6.31863085  T        0       0.97750256       0.36787610       0.41702020
74
Lattice="12.176378772032349 0.0 0.0 6.088189386016174 10.545053342681582 0.0 0.0 0.0 20.0" Properties=species:S:1:pos:R:3:move_mask:L:1:tags:I:1:momenta:R:3 pbc="T T F"
Fe      12.17637877       2.34334519       0.00000000  F        8       0.00000000       0.00000000       0.00000000
Fe       4.05879292       2.34334519       0.00000000  F        8       0.00000000       0.00000000       0.00000000
Fe       8.11758585       2.34334519       0.00000000  F        8       0.00000000       0.00000000       0.00000000
Fe      14.20577523       5.85836297       0.00000000  F        8       0.00000000       0.00000000       0.00000000
Fe       6.08818939       5.85836297       0.00000000  F        8       0.00000000       0.00000000       0.00000000
Fe      10.14698231       5.85836297       0.00000000  F        8       0.00000000       0.00000000       0.00000000
Fe      16.23517169       9.37338075       0.00000000  F        8       0.00000000       0.00000000       0.00000000
Fe       8.11758585       9.37338075       0.00000000  F        8       0.00000000       0.00000000       0.00000000
Fe      12.17637877       9.37338075       0.00000000  F        8       0.00000000       0.00000000       0.00000000
Fe       0.00000000       0.00000000       0.82849764  F        7       0.00000000       0.00000000       0.00000000
Fe       4.05879292       0.00000000       0.82849764  F        7       0.00000000       0.00000000       0.00000000
Fe       8.11758585       0.00000000       0.82849764  F        7       0.00000000       0.00000000       0.00000000
Fe       2.02939646       3.51501778       0.82849764  F        7       0.00000000       0.00000000       0.00000000
Fe       6.08818939       3.51501778       0.82849764  F        7       0.00000000       0.00000000       0.00000000
Fe      10.14698231       3.51501778       0.82849764  F        7       0.00000000       0.00000000       0.00000000
Fe       4.05879292       7.03003556       0.82849764  F        7       0.00000000       0.00000000       0.00000000
Fe       8.11758585       7.03003556       0.82849764  F        7       0.00000000       0.00000000       0.00000000
Fe      12.17637877       7.03003556       0.82849764  F        7       0.00000000       0.00000000       0.00000000
Fe       2.02939646       1.17167259       1.65699527  F        6       0.00000000       0.00000000       0.00000000
Fe       6.08818939       1.17167259       1.65699527  F        6       0.00000000       0.00000000       0.00000000
Fe      10.14698231       1.17167259       1.65699527  F        6       0.00000000       0.00000000       0.00000000
Fe       4.05879292       4.68669037       1.65699527  F        6       0.00000000       0.00000000       0.00000000
Fe       8.11758585       4.68669037       1.65699527  F        6       0.00000000       0.00000000       0.00000000
Fe      12.17637877       4.68669037       1.65699527  F        6       0.00000000       0.00000000       0.00000000
Fe       6.08818939       8.20170816       1.65699527  F        6       0.00000000       0.00000000       0.00000000
Fe      10.14698231       8.20170816       1.65699527  F        6       0.00000000       0.00000000       0.00000000
Fe      14.20577523       8.20170816       1.65699527  F        6       0.00000000       0.00000000       0.00000000
Fe      12.36856482       2.50422919       2.18351478  T        5       0.80604868       0.58162501      -0.32522094
Fe       3.92197960       2.53402258       2.26168423  T        5       0.05063439       1.24547984       1.14993832
Fe       8.14540638       2.36835686       2.18175948  T        5       0.45536510      -0.32983110       1.26981470
Fe      14.32389681       5.96059568       2.12223551  T        5       2.44041136      -0.72477329      -1.88373447
Fe       6.05132046       5.52721329       2.27395662  T        5      -0.77451343      -1.69394219       0.85825695
Fe      10.17571328       5.39837203       2.19083349  T        5       0.73841406      -3.37272945      -0.34194661
Fe      16.35873200       9.42056579       2.35898820  T        5       1.60311818      -0.22172458       0.89264526
Fe       7.97966885       9.32415372       2.30709210  T        5      -2.51203805       0.63921449       1.56548405
Fe      12.00974348       9.29618417       2.24020454  T        5      -2.40465912      -2.59790140      -1.39859103
Fe       0.19093210       0.24860228       3.02315815  T        4       0.71597425       0.15305580      -1.15914043
Fe       3.97345113       0.27498208       2.98276283  T        4       1.21296223       0.60454645      -1.63197105
Fe       8.11761966       0.16940108       2.99527866  T        4      -0.13267116      -0.37500255       0.58269756
Fe      14.17019729       3.94715089       3.17677514  T        4      -1.08684392       1.18857461       2.03615813
Fe       6.09466742       3.07797543       3.19321596  T        4      -0.22537783      -1.13763028       1.80608209
Fe      10.04688477       3.36094095       3.16842469  T        4      -1.08104889       2.93513712      -0.57994944
Fe       4.26489492       7.02153472       3.05322026  T        4      -1.48231828      -0.57545919      -0.16698644
Fe       8.01680126       6.80025347       2.96963347  T        4      -1.94035089      -1.22315828      -1.55071494
Fe      11.96017578       6.88999094       3.02535378  T        4       1.44007238      -3.43849736      -0.57498488
Fe       2.01573097       1.60417539       3.95410727  T        3      -0.08348759       1.81692464       0.32888410
Fe       6.02738172       0.82502723       3.94813853  T        3      -0.19515318      -0.13755637      -1.06754848
Fe      10.24010401       0.75896654       4.03235636  T        3       0.76573274      -1.29880975       0.49019955
Fe       4.19055131       4.70633297       3.94818732  T        3      -1.56009117       0.05510616       0.24521255
Fe       8.29294308       4.76053583       3.87940813  T        3       2.96170816       1.54280247      -0.07321954
Fe      11.96986617       4.74709408       4.00435802  T        3       0.65052960       1.18968762       1.42046369
Fe       6.35811145       8.46157886       4.04322711  T        3       1.69253435       0.28294461       2.22057341
Fe       9.98445813       8.44798196       3.93953091  T        3       0.85297081       0.34356211       0.16333742
Fe      14.27417939       7.88130937       3.99815973  T        3       1.32505767      -0.18049168       1.55287134
Fe      12.01672432       2.12116255       4.43534292  T        2       0.72146239      -2.69276243      -0.75460759
Fe       4.19483167       2.16383345       4.53699966  T        2      -1.37674858      -2.11607178       1.48361748
Fe       8.19980984       2.28064838       4.56172237  T        2       1.56652068       1.11709541       0.61664613
Fe      14.28197397       5.47274627       4.63873921  T        2       1.57139008      -0.71989595       0.88417704
Fe       6.14483389       6.01442565       4.52874091  T        2      -1.42894795      -1.73098282       1.27714869
Fe       9.99954513       6.07913999       4.52473144  T        2      -0.45781942      -0.02664559       0.91135175
Fe      16.24778939       8.97583022       4.63724433  T        2       0.44646473      -0.16327406       0.83940203
Fe       8.24156615       9.97493682       4.48997618  T        2       2.83596786       2.11897630       0.36665942
Fe      12.25683156       9.00687589       4.48704368  T        2       1.33746725       0.66275157      -2.51279076
Fe      17.91124117      10.24174279       5.13201933  T        1       0.26431146      -0.78281032      -0.71158678
Fe      10.55137707      10.37536539       5.17717792  T        1       1.22841653       1.67362879      -0.57955464
Fe      14.26342493       9.95735122       5.19803171  T        1       1.31882633      -0.09805713       3.06942439
Fe       2.06188002       3.36132680       5.33848940  T        1       0.77811095      -0.25046033       3.01804038
Fe       6.24594750       4.09282599       5.37922889  T        1       0.64179025       2.43806234       2.52740551
Fe      10.00463956       3.87900938       5.13827229  T        1       0.93566887      -1.34574764      -1.05190223
Fe       4.01752630       6.78245729       5.30702318  T        1       4.91352815       1.64109023       1.94866993
Fe       8.19129346       7.59671367       5.17763585  T        1       1.72259869      -1.17637271      -0.57440586
Fe      12.45732415       6.79471023       5.27479355  T        1       0.61061008       2.04376770       0.95649312
N        7.59043662       3.23622588       6.33937773  T        0      -0.82213184       0.20925609       0.21014899
N        8.82961049       3.32814341       6.32011574  T        0       0.97037275       0.35038028       0.42950043
74
Lattice="12.176378772032349 0.0 0.0 6.088189386016174 10.545053342681582 0.0 0.0 0.0 20.0" Properties=species:S:1:pos:R:3:move_mask:L:1:tags:I:1:momenta:R:3 pbc="T T F"
Fe      12.17637877       2.34334519       0.00000000  F        8       0.00000000       0.00000000       0.00000000
Fe       4.05879292       2.34334519       0.00000000  F        8       0.00000000       0.00000000       0.00000000
Fe       8.11758585       2.34334519       0.00000000  F        8       0.00000000       0.00000000       0.00000000
Fe      14.20577523       5.85836297       0.00000000  F        8       0.00000000       0.00000000       0.00000000
Fe       6.08818939       5.85836297       0.00000000  F        8       0.00000000       0.00000000       0.00000000
Fe      10.14698231       5.85836297       0.00000000  F        8       0.00000000       0.00000000       0.00000000
Fe      16.23517169       9.37338075       0.00000000  F        8       0.00000000       0.00000000       0.00000000
Fe       8.11758585       9.37338075       0.00000000  F        8       0.00000000       0.00000000       0.00000000
Fe      12.17637877       9.37338075       0.00000000  F        8       0.00000000       0.00000000       0.00000000
Fe       0.00000000       0.00000000       0.82849764  F        7       0.00000000       0.00000000       0.00000000
Fe       4.05879292       0.00000000       0.82849764  F        7       0.00000000       0.00000000       0.00000000
Fe       8.11758585       0.00000000       0.82849764  F        7       0.00000000       0.00000000       0.00000000
Fe       2.02939646       3.51501778       0.82849764  F        7       0.00000000       0.00000000       0.00000000
Fe       6.08818939       3.51501778       0.82849764  F        7       0.00000000       0.00000000       0.00000000
Fe      10.14698231       3.51501778       0.82849764  F        7       0.00000000       0.00000000       0.00000000
Fe       4.05879292       7.03003556       0.82849764  F        7       0.00000000       0.00000000       0.00000000
Fe       8.11758585       7.03003556       0.82849764  F        7       0.00000000       0.00000000       0.00000000
Fe      12.17637877       7.03003556       0.82849764  F        7       0.00000000       0.00000000       0.00000000
Fe       2.02939646       1.17167259       1.65699527  F        6       0.00000000       0.00000000       0.00000000
Fe       6.08818939       1.17167259       1.65699527  F        6       0.00000000       0.00000000       0.00000000
Fe      10.14698231       1.17167259       1.65699527  F        6       0.00000000       0.00000000       0.00000000
Fe       4.05879292       4.68669037       1.65699527  F        6       0.00000000       0.00000000       0.00000000
Fe       8.11758585       4.68669037       1.65699527  F        6       0.00000000       0.00000000       0.00000000
Fe      12.17637877       4.68669037       1.65699527  F        6       0.00000000       0.00000000       0.00000000
Fe       6.08818939       8.20170816       1.65699527  F        6       0.00000000       0.00000000       0.00000000
Fe      10.14698231       8.20170816       1.65699527  F        6       0.00000000       0.00000000       0.00000000
Fe      14.20577523       8.20170816       1.65699527  F        6       0.00000000       0.00000000       0.00000000
Fe      12.36926282       2.50474139       2.18323492  T        5       0.78656068       0.58704079      -0.31334817
Fe       3.92202045       2.53511415       2.26268582  T        5       0.04257030       1.24515878       1.13543643
Fe       8.14579982       2.36806714       2.18286453  T        5       0.44232279      -0.33125351       1.25158707
Fe      14.32602119       5.95997340       2.12059518  T        5       2.40676144      -0.69511547      -1.85895809
Fe       6.05064880       5.52573691       2.27470536  T        5      -0.75796066      -1.67474134       0.85017347
Fe      10.17635730       5.39546258       2.19054946  T        5       0.73104979      -3.26537156      -0.30614523
Fe      16.36012691       9.42037061       2.35976187  T        5       1.57965765      -0.22365734       0.87259927
Fe       7.97749089       9.32470587       2.30845219  T        5      -2.45731791       0.62061445       1.53780810
Fe      12.00765300       9.29392498       2.23898719  T        5      -2.36516897      -2.55690238      -1.37908480
Fe       0.19155588       0.24873176       3.02214530  T        4       0.70723639       0.14234121      -1.15180258
Fe       3.97449954       0.27550249       2.98134717  T        4       1.17912290       0.58285101      -1.59808836
Fe       8.11750080       0.16906389       2.99579949  T        4      -0.13854448      -0.39447301       0.60566591
Fe      14.16924081       3.94816650       3.17852839  T        4      -1.09569627       1.12874744       1.96435257
Fe       6.09447306       3.07699555       3.19480237  T        4      -0.21808162      -1.09813825       1.81363785
Fe      10.04595723       3.36346059       3.16788626  T        4      -1.03532123       2.81367414      -0.64853062
Fe       4.26360683       7.02103484       3.05308011  T        4      -1.45678302      -0.56511487      -0.15277630
Fe       8.01511454       6.79920494       2.96829153  T        4      -1.90834055      -1.16922062      -1.51122978
Fe      11.96143114       6.88699530       3.02486240  T        4       1.42435029      -3.39661694      -0.54618922
Fe       2.01566349       1.60575532       3.95438910  T        3      -0.07044240       1.78805311       0.31414610
Fe       6.02722838       0.82490936       3.94720737  T        3      -0.15461333      -0.13134000      -1.05713584
Fe      10.24075189       0.75784224       4.03277727  T        3       0.71246306      -1.26650959       0.47019064
Fe       4.18920254       4.70637402       3.94840661  T        3      -1.51736260       0.03851985       0.25515435
Fe       8.29550327       4.76187631       3.87935175  T        3       2.87975615       1.51574234      -0.05522770
Fe      11.97044027       4.74813027       4.00560158  T        3       0.65949845       1.17456855       1.41705764
Fe       6.35959728       8.46181034       4.04515574  T        3       1.69775772       0.24521341       2.18007343
Fe       9.98519818       8.44827534       3.93967014  T        3       0.83564857       0.32587613       0.15439071
Fe      14.27533077       7.88114781       3.99951041  T        3       1.30205531      -0.18816271       1.52901003
Fe      12.01735002       2.11882844       4.43468747  T        2       0.70618585      -2.63292664      -0.74086807
Fe       4.19363051       2.16199298       4.53829608  T        2      -1.36401322      -2.08333138       1.47450683
Fe       8.20117036       2.28161732       4.56225846  T        2       1.53778521       1.09402344       0.60721366
Fe      14.28334153       5.47214588       4.63953058  T        2       1.54894546      -0.65003535       0.92161091
Fe       6.14358634       6.01292798       4.52985125  T        2      -1.41759946      -1.68611196       1.25627193
Fe       9.99915007       6.07913522       4.52551743  T        2      -0.44352202       0.01582841       0.88210477
Fe      16.24816719       8.97568020       4.63797694  T        2       0.41554228      -0.17905697       0.83223069
Fe       8.24404257       9.97678165       4.49029778  T        2       2.81454987       2.09045039       0.36717278
Fe      12.25800369       9.00745060       4.48485056  T        2       1.33706700       0.64860684      -2.49133581
Fe      17.91148509      10.24106860       5.13142138  T        1       0.29233065      -0.75547274      -0.65278029
Fe      10.55244515      10.37682168       5.17667516  T        1       1.20864940       1.64918503      -0.56758995
Fe      14.26457704       9.95726654       5.20069597  T        1       1.31001729      -0.09521448       3.00968261
Fe       2.06256054       3.36110740       5.34112501  T        1       0.77468696      -0.25010252       2.99556395
Fe       6.24651270       4.09493971       5.38142472  T        1       0.64798377       2.38463843       2.48302406
Fe      10.00547708       3.87784318       5.13739106  T        1       0.97502631      -1.31535332      -0.95844467
Fe       4.02181454       6.78388661       5.30871709  T        1       4.87124207       1.62026452       1.91639478
Fe       8.19279863       7.59568637       5.17712239  T        1       1.71181278      -1.16767531      -0.59712088
Fe      12.45786272       6.79649412       5.27561520  T        1       0.61826518       2.02664042       0.91827725
N        7.58753514       3.23696990       6.34010915  T        0      -0.83161982       0.21696641       0.20787348
N        8.83296498       3.32933177       6.32163277  T        0       0.94301489       0.32921052       0.43835106
74
Lattice="12.176378772032349 0.0 0.0 6.088189386016174 10.545053342681582 0.0 0.0 0.0 20.0" Properties=species:S:1:pos:R:3:move_mask:L:1:tags:I:1:momenta:R:3 pbc="T T F"
Fe      12.17637877       2.34334519       0.00000000  F        8       0.00000000       0.00000000       0.00000000
Fe       4.05879292       2.34334519       0.00000000  F        8       0.00000000       0.00000000       0.00000000
Fe       8.11758585       2.34334519       0.00000000  F        8       0.00000000       0.00000000       0.00000000
Fe      14.20577523       5.85836297       0.00000000  F        8       0.00000000       0.00000000       0.00000000
Fe       6.08818939       5.85836297       0.00000000  F        8       0.00000000       0.00000000       0.00000000
Fe      10.14698231       5.85836297       0.00000000  F        8       0.00000000       0.00000000       0.00000000
Fe      16.23517169       9.37338075       0.00000000  F        8       0.00000000       0.00000000       0.00000000
Fe       8.11758585       9.37338075       0.00000000  F        8       0.00000000       0.00000000       0.00000000
Fe      12.17637877       9.37338075       0.00000000  F        8       0.00000000       0.00000000       0.00000000
Fe       0.00000000       0.00000000       0.82849764  F        7       0.00000000       0.00000000       0.00000000
Fe       4.05879292       0.00000000       0.82849764  F        7       0.00000000       0.00000000       0.00000000
Fe       8.11758585       0.00000000       0.82849764  F        7       0.00000000       0.00000000       0.00000000
Fe       2.02939646       3.51501778       0.82849764  F        7       0.00000000       0.00000000       0.00000000
Fe       6.08818939       3.51501778       0.82849764  F        7       0.00000000       0.00000000       0.00000000
Fe      10.14698231       3.51501778       0.82849764  F        7       0.00000000       0.00000000       0.00000000
Fe       4.05879292       7.03003556       0.82849764  F        7       0.00000000       0.00000000       0.00000000
Fe       8.11758585       7.03003556       0.82849764  F        7       0.00000000       0.00000000       0.00000000
Fe      12.17637877       7.03003556       0.82849764  F        7       0.00000000       0.00000000       0.00000000
Fe       2.02939646       1.17167259       1.65699527  F        6       0.00000000       0.00000000       0.00000000
Fe       6.08818939       1.17167259       1.65699527  F        6       0.00000000       0.00000000       0.00000000
Fe      10.14698231       1.17167259       1.65699527  F        6       0.00000000       0.00000000       0.00000000
Fe       4.05879292       4.68669037       1.65699527  F        6       0.00000000       0.00000000       0.00000000
Fe       8.11758585       4.68669037       1.65699527  F        6       0.00000000       0.00000000       0.00000000
Fe      12.17637877       4.68669037       1.65699527  F        6       0.00000000       0.00000000       0.00000000
Fe       6.08818939       8.20170816       1.65699527  F        6       0.00000000       0.00000000       0.00000000
Fe      10.14698231       8.20170816       1.65699527  F        6       0.00000000       0.00000000       0.00000000
Fe      14.20577523       8.20170816       1.65699527  F        6       0.00000000       0.00000000       0.00000000
Fe      12.36995806       2.50526902       2.18295975  T        5       0.78333783       0.60457181      -0.30799209
Fe       3.92205501       2.53622814       2.26369544  T        5       0.03539680       1.27061798       1.14452714
Fe       8.14618987       2.36777010       2.18397643  T        5       0.43840557      -0.33959233       1.25929853
Fe      14.32815993       5.95936441       2.11894272  T        5       2.42287428      -0.67992254      -1.87256648
Fe       6.04997787       5.52424680       2.27546254  T        5      -0.75701325      -1.69028868       0.85975787
Fe      10.17700819       5.39258805       2.19029121  T        5       0.73883507      -3.22481456      -0.27675267
Fe      16.36153006       9.42016962       2.36053384  T        5       1.58893211      -0.23028182       0.87056401
Fe       7.97531618       9.32525302       2.30981603  T        5      -2.45329701       0.61483667       1.54193161
Fe      12.00555404       9.29165510       2.23776175  T        5      -2.37461101      -2.56888823      -1.38823527
Fe       0.19218484       0.24885441       3.02111796  T        4       0.71304277       0.13449518      -1.16815168
Fe       3.97553973       0.27601449       2.97993212  T        4       1.16958868       0.57320070      -1.59721306
Fe       8.11737426       0.16870235       2.99635148  T        4      -0.14731245      -0.42230599       0.64112400
Fe      14.16825647       3.94915026       3.18025462  T        4      -1.12751410       1.09233008       1.93347608
Fe       6.09428113       3.07603029       3.19642847  T        4      -0.21529827      -1.08135374       1.85875179
Fe      10.04505089       3.36592484       3.16727594  T        4      -1.01106657       2.74997911      -0.73036169
Fe       4.26231451       7.02053372       3.05294964  T        4      -1.46153521      -0.56650432      -0.14172479
Fe       8.01342100       6.79818242       2.96695661  T        4      -1.91602068      -1.13938463      -1.50314304
Fe      11.96269874       6.88397448       3.02438631  T        4       1.43826547      -3.42498978      -0.52871808
Fe       2.01560619       1.60734258       3.95466372  T        3      -0.05879722       1.79630737       0.30587550
Fe       6.02710786       0.82479459       3.94626602  T        3      -0.11706339      -0.12773854      -1.06872086
Fe      10.24136600       0.75672316       4.03318921  T        3       0.67382198      -1.26046088       0.45992569
Fe       4.18786359       4.70640120       3.94863927  T        3      -1.50596188       0.02264949       0.27040705
Fe       8.29804401       4.76322068       3.87931030  T        3       2.85716873       1.52003896      -0.03799532
Fe      11.97103435       4.74917460       4.00686807  T        3       0.68231973       1.18370679       1.44318681
Fe       6.36111871       8.46201321       4.04708869  T        3       1.73830110       0.21254666       2.18489026
Fe       9.98593832       8.44855919       3.93980438  T        3       0.83574110       0.31498966       0.14869240
Fe      14.27648573       7.88097608       4.00086808  T        3       1.30600741      -0.19976855       1.53691222
Fe      12.01797519       2.11649883       4.43403062  T        2       0.70550451      -2.62747349      -0.74230717
Fe       4.19241558       2.16014322       4.53961146  T        2      -1.37966712      -2.09372908       1.49608980
Fe       8.20253373       2.28258624       4.56279793  T        2       1.54088668       1.09420155       0.61164688
Fe      14.28471763       5.47159486       4.64037166  T        2       1.55851897      -0.59370458       0.97830543
Fe       6.14232288       6.01143903       4.53096616  T        2      -1.43564078      -1.67587337       1.26134937
Fe       9.99875952       6.07916803       4.52629392  T        2      -0.43826365       0.05875274       0.87123602
Fe      16.24852545       8.97551306       4.63871847  T        2       0.39320723      -0.19857641       0.84237745
Fe       8.24655159       9.97863965       4.49062656  T        2       2.85153428       2.10533997       0.37536416
Fe      12.25919992       9.00802478       4.48263076  T        2       1.36452271       0.64798636      -2.52162440
Fe      17.91175898      10.24040462       5.13086305  T        1       0.32658972      -0.74372507      -0.60757091
Fe      10.55351796      10.37828660       5.17617255  T        1       1.21395751       1.65886630      -0.56734324
Fe      14.26574538       9.95718257       5.20336279  T        1       1.32849194      -0.09443158       3.01238308
Fe       2.06325223       3.36088379       5.34379547  T        1       0.78740584      -0.25484339       3.03495312
Fe       6.24709528       4.09704992       5.38362709  T        1       0.66786382       2.38022140       2.49044569
Fe      10.00636664       3.87667948       5.13657459  T        1       1.03401598      -1.31259327      -0.88413564
Fe       4.02615477       6.78532728       5.31041770  T        1       4.93038925       1.63311893       1.92390198
Fe       8.19432561       7.59464536       5.17657816  T        1       1.73657566      -1.18323818      -0.63213263
Fe      12.45841929       6.79830004       5.27642010  T        1       0.63877872       2.05168694       0.89908063
N        7.58456364       3.23775811       6.34084575  T        0      -0.84523998       0.22998009       0.20880045
N        8.83627015       3.33046832       6.32321142  T        0       0.92289159       0.31390288       0.45557704
74
Lattice="12.176378772032349 0.0 0.0 6.088189386016174 10.545053342681582 0.0 0.0 0.0 20.0" Properties=species:S:1:pos:R:3:move_mask:L:1:tags:I:1:momenta:R:3 pbc="T T F"
Fe      12.17637877       2.34334519       0.00000000  F        8       0.00000000       0.00000000       0.00000000
Fe       4.05879292       2.34334519       0.00000000  F        8       0.00000000       0.00000000       0.00000000
Fe       8.11758585       2.34334519       0.00000000  F        8       0.00000000       0.00000000       0.00000000
Fe      14.20577523       5.85836297       0.00000000  F        8       0.00000000       0.00000000       0.00000000
Fe       6.08818939       5.85836297       0.00000000  F        8       0.00000000       0.00000000       0.00000000
Fe      10.14698231       5.85836297       0.00000000  F        8       0.00000000       0.00000000       0.00000000
Fe      16.23517169       9.37338075       0.00000000  F        8       0.00000000       0.00000000       0.00000000
Fe       8.11758585       9.37338075       0.00000000  F        8       0.00000000       0.00000000       0.00000000
Fe      12.17637877       9.37338075       0.00000000  F        8       0.00000000       0.00000000       0.00000000
Fe       0.00000000       0.00000000       0.82849764  F        7       0.00000000       0.00000000       0.00000000
Fe       4.05879292       0.00000000       0.82849764  F        7       0.00000000       0.00000000       0.00000000
Fe       8.11758585       0.00000000       0.82849764  F        7       0.00000000       0.00000000       0.00000000
Fe       2.02939646       3.51501778       0.82849764  F        7       0.00000000       0.00000000       0.00000000
Fe       6.08818939       3.51501778       0.82849764  F        7       0.00000000       0.00000000       0.00000000
Fe      10.14698231       3.51501778       0.82849764  F        7       0.00000000       0.00000000       0.00000000
Fe       4.05879292       7.03003556       0.82849764  F        7       0.00000000       0.00000000       0.00000000
Fe       8.11758585       7.03003556       0.82849764  F        7       0.00000000       0.00000000       0.00000000
Fe      12.17637877       7.03003556       0.82849764  F        7       0.00000000       0.00000000       0.00000000
Fe       2.02939646       1.17167259       1.65699527  F        6       0.00000000       0.00000000       0.00000000
Fe       6.08818939       1.17167259       1.65699527  F        6       0.00000000       0.00000000       0.00000000
Fe      10.14698231       1.17167259       1.65699527  F        6       0.00000000       0.00000000       0.00000000
Fe       4.05879292       4.68669037       1.65699527  F        6       0.00000000       0.00000000       0.00000000
Fe       8.11758585       4.68669037       1.65699527  F        6       0.00000000       0.00000000       0.00000000
Fe      12.17637877       4.68669037       1.65699527  F        6       0.00000000       0.00000000       0.00000000
Fe       6.08818939       8.20170816       1.65699527  F        6       0.00000000       0.00000000       0.00000000
Fe      10.14698231       8.20170816       1.65699527  F        6       0.00000000       0.00000000       0.00000000
Fe      14.20577523       8.20170816       1.65699527  F        6       0.00000000       0.00000000       0.00000000
Fe      12.37063911       2.50580359       2.18269380  T        5       0.76709338       0.61243759      -0.29746965
Fe       3.92208264       2.53734656       2.26469670  T        5       0.02750240       1.27561641       1.13499505
Fe       8.14657007       2.36747049       2.18507705  T        5       0.42713508      -0.34255455       1.24640252
Fe      14.33027806       5.95877881       2.11730518  T        5       2.39924447      -0.65327076      -1.85542169
Fe       6.04931876       5.52276716       2.27621591  T        5      -0.74345844      -1.67832122       0.85541062
Fe      10.17765539       5.38979674       2.19006322  T        5       0.73459298      -3.12936535      -0.24226263
Fe      16.36291858       9.41996601       2.36129141  T        5       1.57219369      -0.23330197       0.85405864
Fe       7.97318057       9.32578610       2.31116128  T        5      -2.40850564       0.59876156       1.52064128
Fe      12.00348093       9.28941157       2.23654813  T        5      -2.34500071      -2.53875226      -1.37475821
Fe       0.19280866       0.24896806       3.02009292  T        4       0.70709086       0.12418897      -1.16537635
Fe       3.97655445       0.27650957       2.97854095  T        4       1.14044184       0.55386990      -1.56986796
Fe       8.11724198       0.16832192       2.99692592  T        4      -0.15385490      -0.44393673       0.66667218
Fe      14.16725983       3.95008567       3.18192542  T        4      -1.14164719       1.03719573       1.87032994
Fe       6.09409479       3.07509567       3.19806810  T        4      -0.20890293      -1.04634520       1.87411011
Fe      10.04418084       3.36829217       3.16660305  T        4      -0.96966301       2.63909600      -0.80156736
Fe       4.26103898       7.02003952       3.05283111  T        4      -1.44237986      -0.55860364      -0.12810432
Fe       8.01174818       6.79720309       2.96565058  T        4      -1.89240830      -1.09002423      -1.47018417
Fe      11.96395810       6.88097777       3.02393347  T        4       1.42886869      -3.39731826      -0.50217809
Fe       2.01556019       1.60891134       3.95492651  T        3      -0.04588468       1.77518082       0.29234923
Fe       6.02702271       0.82468493       3.94532968  T        3      -0.07660078      -0.12184547      -1.06300800
Fe      10.24193576       0.75562768       4.03358533  T        3       0.62315245      -1.23351250       0.44187438
Fe       4.18655663       4.70641381       3.94888170  T        3      -1.46937866       0.00599563       0.28153759
Fe       8.30052318       4.76454694       3.87928499  T        3       2.78670655       1.49929698      -0.01939272
Fe      11.97163908       4.75020998       4.00813719  T        3       0.69453664       1.17342021       1.44622774
Fe       6.36265139       8.46218378       4.04899449  T        3       1.75114039       0.17570006       2.15391921
Fe       9.98666653       8.44882877       3.93993139  T        3       0.82215422       0.29873470       0.14047368
Fe      14.27762536       7.88079683       4.00221068  T        3       1.28847557      -0.20835436       1.51970923
Fe      12.01858956       2.11421209       4.43338327  T        2       0.69313134      -2.57840209      -0.73135682
Fe       4.19120650       2.15831440       4.54092463  T        2      -1.37301134      -2.06977598       1.49358345
Fe       8.20387762       2.28353978       4.56333310  T        2       1.51861754       1.07690602       0.60732865
Fe      14.28607977       5.47110277       4.64124942  T        2       1.54250779      -0.52651243       1.02017300
Fe       6.14106399       6.00998355       4.53206738  T        2      -1.43038415      -1.63747103       1.24564689
Fe       9.99838006       6.07923844       4.52704815  T        2      -0.42551742       0.10169350       0.84587516
Fe      16.24885804       8.97533131       4.63945695  T        2       0.36391913      -0.21523682       0.83891466
Fe       8.24905258       9.98048063       4.49095728  T        2       2.84232796       2.08591024       0.37760313
Fe      12.26040109       9.00858908       4.48042019  T        2       1.37018804       0.63675320      -2.51106656
Fe      17.91205889      10.23976191       5.13035391  T        1       0.35633708      -0.71940995      -0.55150647
Fe      10.55457802      10.37973623       5.17567836  T        1       1.19938554       1.64133702      -0.55769292
Fe      14.26691113       9.95710062       5.20598858  T        1       1.32557561      -0.09216187       2.96553255
Fe       2.06394397       3.36065965       5.34645728  T        1       0.78749105      -0.25538533       3.02487139
Fe       6.24768611       4.09912164       5.38580031  T        1       0.67736298       2.33605311       2.45728110
Fe      10.00729380       3.87553702       5.13583767  T        1       1.07656232      -1.28852334      -0.79305033
Fe       4.03047699       6.78675592       5.31209730  T        1       4.90993063       1.61940789       1.89990846
Fe       8.19584971       7.59360748       5.17601177  T        1       1.73328246      -1.17966956      -0.65735458
Fe      12.45898502       6.80009883       5.27719484  T        1       0.64922562       2.04358970       0.86465556
N        7.58161436       3.23858087       6.34157177  T        0      -0.83306701       0.24019752       0.20527388
N        8.83942969       3.33153061       6.32482402  T        0       0.87585346       0.29223968       0.46488605
74
Lattice="12.176378772032349 0.0 0.0 6.088189386016174 10.545053342681582 0.0 0.0 0.0 20.0" Properties=species:S:1:pos:R:3:move_mask:L:1:tags:I:1:momenta:R:3 pbc="T T F"
Fe      12.17637877       2.34334519       0.00000000  F        8       0.00000000       0.00000000       0.00000000
Fe       4.05879292       2.34334519       0.00000000  F        8       0.00000000       0.00000000       0.00000000
Fe       8.11758585       2.34334519       0.00000000  F        8       0.00000000       0.00000000       0.00000000
Fe      14.20577523       5.85836297       0.00000000  F        8       0.00000000       0.00000000       0.00000000
Fe       6.08818939       5.85836297       0.00000000  F        8       0.00000000       0.00000000       0.00000000
Fe      10.14698231       5.85836297       0.00000000  F        8       0.00000000       0.00000000       0.00000000
Fe      16.23517169       9.37338075       0.00000000  F        8       0.00000000       0.00000000       0.00000000
Fe       8.11758585       9.37338075       0.00000000  F        8       0.00000000       0.00000000       0.00000000
Fe      12.17637877       9.37338075       0.00000000  F        8       0.00000000       0.00000000       0.00000000
Fe       0.00000000       0.00000000       0.82849764  F        7       0.00000000       0.00000000       0.00000000
Fe       4.05879292       0.00000000       0.82849764  F        7       0.00000000       0.00000000       0.00000000
Fe       8.11758585       0.00000000       0.82849764  F        7       0.00000000       0.00000000       0.00000000
Fe       2.02939646       3.51501778       0.82849764  F        7       0.00000000       0.00000000       0.00000000
Fe       6.08818939       3.51501778       0.82849764  F        7       0.00000000       0.00000000       0.00000000
Fe      10.14698231       3.51501778       0.82849764  F        7       0.00000000       0.00000000       0.00000000
Fe       4.05879292       7.03003556       0.82849764  F        7       0.00000000       0.00000000       0.00000000
Fe       8.11758585       7.03003556       0.82849764  F        7       0.00000000       0.00000000       0.00000000
Fe      12.17637877       7.03003556       0.82849764  F        7       0.00000000       0.00000000       0.00000000
Fe       2.02939646       1.17167259       1.65699527  F        6       0.00000000       0.00000000       0.00000000
Fe       6.08818939       1.17167259       1.65699527  F        6       0.00000000       0.00000000       0.00000000
Fe      10.14698231       1.17167259       1.65699527  F        6       0.00000000       0.00000000       0.00000000
Fe       4.05879292       4.68669037       1.65699527  F        6       0.00000000       0.00000000       0.00000000
Fe       8.11758585       4.68669037       1.65699527  F        6       0.00000000       0.00000000       0.00000000
Fe      12.17637877       4.68669037       1.65699527  F        6       0.00000000       0.00000000       0.00000000
Fe       6.08818939       8.20170816       1.65699527  F        6       0.00000000       0.00000000       0.00000000
Fe      10.14698231       8.20170816       1.65699527  F        6       0.00000000       0.00000000       0.00000000
Fe      14.20577523       8.20170816       1.65699527  F        6       0.00000000       0.00000000       0.00000000
Fe      12.37131219       2.50635014       2.18243463  T        5       0.75795488       0.62602570      -0.28972470
Fe       3.92210356       2.53847994       2.26569901  T        5       0.01984877       1.29258175       1.13615664
Fe       8.14694388       2.36716540       2.18617666  T        5       0.41979029      -0.34879863       1.24516813
Fe      14.33239524       5.95821122       2.11566741  T        5       2.39794409      -0.63272840      -1.85547933
Fe       6.04866547       5.52128411       2.27697257  T        5      -0.73673227      -1.68211511       0.85913355
Fe      10.17830495       5.38706388       2.18986355  T        5       0.73723007      -3.06207285      -0.20999441
Fe      16.36430540       9.41975778       2.36204149  T        5       1.57016293      -0.23858316       0.84544425
Fe       7.97106452       9.32630999       2.31250037  T        5      -2.38593789       0.58821206       1.51348561
Fe      12.00141448       9.28717352       2.23533494  T        5      -2.33721904      -2.53234794      -1.37422457
Fe       0.19343304       0.24907364       3.01906075  T        4       0.70763467       0.11493034      -1.17332955
Fe       3.97755291       0.27699222       2.97716088  T        4       1.12177237       0.53964491      -1.55705573
Fe       8.11710266       0.16791868       2.99752834  T        4      -0.16189119      -0.47001078       0.69851030
Fe      14.16624116       3.95098118       3.18355625  T        4      -1.16680942       0.99167104       1.82479706
Fe       6.09391236       3.07418321       3.19973678  T        4      -0.20444426      -1.02099188       1.90710118
Fe      10.04333918       3.37058355       3.16586096  T        4      -0.93724214       2.55207601      -0.88023408
Fe       4.25976832       7.01954764       3.05272350  T        4      -1.43679930      -0.55594459      -0.11563332
Fe       8.01008040       6.79625823       2.96436134  T        4      -1.88663625      -1.05060473      -1.45099777
Fe      11.96522108       6.87797731       3.02349983  T        4       1.43298144      -3.40130429      -0.48026832
Fe       2.01552519       1.61047625       3.95517980  T        3      -0.03329747       1.77072583       0.28147843
Fe       6.02697263       0.82457950       3.94438952  T        3      -0.03649946      -0.11695947      -1.06734573
Fe      10.24246604       0.75454568       4.03396924  T        3       0.57803874      -1.21806782       0.42792569
Fe       4.18526974       4.70641178       3.94913626  T        3      -1.44635282      -0.01075042       0.29538007
Fe       8.30296330       4.76586734       3.87927607  T        3       2.74189048       1.49249783      -0.00051176
Fe      11.97226039       4.75124600       4.00942105  T        3       0.71349485       1.17401753       1.46304745
Fe       6.36420994       8.46232337       4.05089094  T        3       1.78060134       0.14037621       2.14321746
Fe       9.98738965       8.44908653       3.94005235  T        3       0.81634510       0.28527786       0.13359170
Fe      14.27876024       7.88060828       4.00355078  T        3       1.28295533      -0.21896552       1.51679678
Fe      12.01919876       2.11194726       4.43273958  T        2       0.68717627      -2.55319827      -0.72705620
Fe       4.18999185       2.15648952       4.54224804  T        2      -1.37934900      -2.06514085       1.50524128
Fe       8.20521450       2.28448726       4.56387003  T        2       1.51051812       1.07021105       0.60988725
Fe      14.28744057       5.47066542       4.64217254  T        2       1.54085029      -0.46412997       1.07190267
Fe       6.13979787       6.00854845       4.53316506  T        2      -1.43854634      -1.61398647       1.24150110
Fe       9.99800837       6.07934754       4.52778712  T        2      -0.41656969       0.14583383       0.82846481
Fe      16.24916786       8.97513311       4.64019938  T        2       0.33794549      -0.23398525       0.84339589
Fe       8.25156906       9.98232184       4.49129313  T        2       2.85986272       2.08609745       0.38346766
Fe      12.26161867       9.00914882       4.47819805  T        2       1.38889507       0.63154803      -2.52417629
Fe      17.91238801      10.23913466       5.12988949  T        1       0.38970132      -0.70170623      -0.50052921
Fe      10.55563520      10.38118400       5.17518807  T        1       1.19606003       1.63910814      -0.55320515
Fe      14.26808537       9.95701988       5.20859775  T        1       1.33524222      -0.09083592       2.94643670
Fe       2.06464236       3.36043297       5.34913518  T        1       0.79506568      -0.25822557       3.04292121
Fe       6.24829100       4.10117368       5.38796485  T        1       0.69344523       2.31326385       2.44738870
Fe      10.00826706       3.87440489       5.13517464  T        1       1.12875342      -1.27687864      -0.70845348
Fe       4.03482211       6.78818597       5.31377155  T        1       4.93600809       1.62096049       1.89374923
Fe       8.19738532       7.59256293       5.17541776  T        1       1.74633222      -1.18723103      -0.68875712
Fe      12.45956535       6.80190752       5.27794645  T        1       0.66585766       2.05483708       0.83822070
N        7.57870051       3.23944863       6.34229047  T        0      -0.81762373       0.25335320       0.20272712
N        8.84243441       3.33252511       6.32648329  T        0       0.82672692       0.27248465       0.47779456
74
Lattice="12.176378772032349 0.0 0.0 6.088189386016174 10.545053342681582 0.0 0.0 0.0 20.0" Properties=species:S:1:pos:R:3:move_mask:L:1:tags:I:1:momenta:R:3 pbc="T T F"
Fe      12.17637877       2.34334519       0.00000000  F        8       0.00000000       0.00000000       0.00000000
Fe       4.05879292       2.34334519       0.00000000  F        8       0.00000000       0.00000000       0.00000000
Fe       8.11758585       2.34334519       0.00000000  F        8       0.00000000       0.00000000       0.00000000
Fe      14.20577523       5.85836297       0.00000000  F        8       0.00000000       0.00000000       0.00000000
Fe       6.08818939       5.85836297       0.00000000  F        8       0.00000000       0.00000000       0.00000000
Fe      10.14698231       5.85836297       0.00000000  F        8       0.00000000       0.00000000       0.00000000
Fe      16.23517169       9.37338075       0.00000000  F        8       0.00000000       0.00000000       0.00000000
Fe       8.11758585       9.37338075       0.00000000  F        8       0.00000000       0.00000000       0.00000000
Fe      12.17637877       9.37338075       0.00000000  F        8       0.00000000       0.00000000       0.00000000
Fe       0.00000000       0.00000000       0.82849764  F        7       0.00000000       0.00000000       0.00000000
Fe       4.05879292       0.00000000       0.82849764  F        7       0.00000000       0.00000000       0.00000000
Fe       8.11758585       0.00000000       0.82849764  F        7       0.00000000       0.00000000       0.00000000
Fe       2.02939646       3.51501778       0.82849764  F        7       0.00000000       0.00000000       0.00000000
Fe       6.08818939       3.51501778       0.82849764  F        7       0.00000000       0.00000000       0.00000000
Fe      10.14698231       3.51501778       0.82849764  F        7       0.00000000       0.00000000       0.00000000
Fe       4.05879292       7.03003556       0.82849764  F        7       0.00000000       0.00000000       0.00000000
Fe       8.11758585       7.03003556       0.82849764  F        7       0.00000000       0.00000000       0.00000000
Fe      12.17637877       7.03003556       0.82849764  F        7       0.00000000       0.00000000       0.00000000
Fe       2.02939646       1.17167259       1.65699527  F        6       0.00000000       0.00000000       0.00000000
Fe       6.08818939       1.17167259       1.65699527  F        6       0.00000000       0.00000000       0.00000000
Fe      10.14698231       1.17167259       1.65699527  F        6       0.00000000       0.00000000       0.00000000
Fe       4.05879292       4.68669037       1.65699527  F        6       0.00000000       0.00000000       0.00000000
Fe       8.11758585       4.68669037       1.65699527  F        6       0.00000000       0.00000000       0.00000000
Fe      12.17637877       4.68669037       1.65699527  F        6       0.00000000       0.00000000       0.00000000
Fe       6.08818939       8.20170816       1.65699527  F        6       0.00000000       0.00000000       0.00000000
Fe      10.14698231       8.20170816       1.65699527  F        6       0.00000000       0.00000000       0.00000000
Fe      14.20577523       8.20170816       1.65699527  F        6       0.00000000       0.00000000       0.00000000
Fe      12.37197684       2.50690849       2.18218245  T        5       0.74827532       0.63940965      -0.28175621
Fe       3.92211767       2.53962788       2.26670193  T        5       0.01210056       1.30907721       1.13683269
Fe       8.14731098       2.36685488       2.18727469  T        5       0.41209375      -0.35500199       1.24329373
Fe      14.33451027       5.95766209       2.11403038  T        5       2.39529892      -0.61168170      -1.85443073
Fe       6.04801848       5.51979834       2.27773222  T        5      -0.72944297      -1.68515264       0.86252464
Fe      10.17895655       5.38439239       2.18969260  T        5       0.73952200      -2.99148255      -0.17728423
Fe      16.36568981       9.41954493       2.36278356  T        5       1.56732016      -0.24387219       0.83622505
Fe       7.96896955       9.32682426       2.31383248  T        5      -2.36164145       0.57719179       1.50540619
Fe      11.99935590       9.28494215       2.23412272  T        5      -2.32807032      -2.52458395      -1.37307464
Fe       0.19405758       0.24917091       3.01802207  T        4       0.70769967       0.10541398      -1.18057340
Fe       3.97853430       0.27746201       2.97579285  T        4       1.10217349       0.52494451      -1.54318270
Fe       8.11695626       0.16749238       2.99815874  T        4      -0.16997485      -0.49637994       0.73033747
Fe      14.16520049       3.95183590       3.18514606  T        4      -1.19195888       0.94516126       1.77806957
Fe       6.09373396       3.07329369       3.20143400  T        4      -0.19982654      -0.99475791       1.93953040
Fe      10.04252667       3.37279641       3.16504950  T        4      -0.90396628       2.46215124      -0.95906306
Fe       4.25850313       7.01905832       3.05262702  T        4      -1.43052196      -0.55299555      -0.10294196
Fe       8.00841840       6.79534885       2.96308967  T        4      -1.87999845      -1.01004200      -1.43092314
Fe      11.96648721       6.87497470       3.02308583  T        4       1.43655114      -3.40347168      -0.45785023
Fe       2.01550142       1.61203655       3.95542330  T        3      -0.02047395       1.76540037       0.27028667
Fe       6.02695829       0.82447851       3.94344589  T        3       0.00434184      -0.11183122      -1.07128646
Fe      10.24295596       0.75347787       4.03434059  T        3       0.53195699      -1.20183475       0.41361164
Fe       4.18400392       4.70639484       3.94940302  T        3      -1.42219838      -0.02779726       0.30928053
Fe       8.30536242       4.76718109       3.87928409  T        3       2.69487363       1.48479329       0.01900519
Fe      11.97289834       4.75228204       4.01071937  T        3       0.73250245       1.17392273       1.47953929
Fe       6.36579402       8.46243153       4.05277712  T        3       1.80966584       0.10455029       2.13145973
Fe       9.98810733       8.44933226       3.94016717  T        3       0.81016126       0.27155989       0.12660068
Fe      14.27988969       7.88041037       4.00488773  T        3       1.27669439      -0.22964096       1.51316520
Fe      12.01980238       2.10970588       4.43210007  T        2       0.68074819      -2.52622172      -0.72215187
Fe       4.18877205       2.15466957       4.54358128  T        2      -1.38519547      -2.05937316       1.51644037
Fe       8.20654358       2.28542862       4.56440951  T        2       1.50155440       1.06342010       0.61329831
Fe      14.28879927       5.47028362       4.64314125  T        2       1.53832389      -0.40085344       1.12386398
Fe       6.13852506       6.00713498       4.53425854  T        2      -1.44608828      -1.58906188       1.23658899
Fe       9.99764485       6.07949583       4.52851034  T        2      -0.40714622       0.19053474       0.81051354
Fe      16.24945449       8.97491834       4.64094549  T        2       0.31148705      -0.25285084       0.84759002
Fe       8.25410004       9.98416245       4.49163407  T        2       2.87626331       2.08533511       0.38928637
Fe      12.26285239       9.00970372       4.47596520  T        2       1.40729698       0.62604951      -2.53630902
Fe      17.91274669      10.23852345       5.12947051  T        1       0.42344797      -0.68337132      -0.44878245
Fe      10.55668898      10.38262914       5.17470199  T        1       1.19212907       1.63597394      -0.54834283
Fe      14.26926774       9.95694031       5.21118884  T        1       1.34450867      -0.08953447       2.92568757
Fe       2.06534721       3.36020390       5.35182782  T        1       0.80243092      -0.26086108       3.05941267
Fe       6.24890999       4.10320439       5.39011978  T        1       0.70952657       2.28862688       2.43643070
Fe      10.00928597       3.87328342       5.13458730  T        1       1.18039865      -1.26487370      -0.62183339
Fe       4.03918870       6.78961680       5.31543963  T        1       4.96043658       1.62182174       1.88663937
Fe       8.19893187       7.59151210       5.17479616  T        1       1.75874678      -1.19435644      -0.72012528
Fe      12.46016021       6.80372548       5.27867424  T        1       0.68241849       2.06537722       0.81102420
N        7.57586102       3.24036364       6.34299829  T        0      -0.79157149       0.26711157       0.19920964
N        8.84524709       3.33344799       6.32818610  T        0       0.76752710       0.25169076       0.48978068
74
Lattice="12.176378772032349 0.0 0.0 6.088189386016174 10.545053342681582 0.0 0.0 0.0 20.0" Properties=species:S:1:pos:R:3:move_mask:L:1:tags:I:1:momenta:R:3 pbc="T T F"
Fe      12.17637877       2.34334519       0.00000000  F        8       0.00000000       0.00000000       0.00000000
Fe       4.05879292       2.34334519       0.00000000  F        8       0.00000000       0.00000000       0.00000000
Fe       8.11758585       2.34334519       0.00000000  F        8       0.00000000       0.00000000       0.00000000
Fe      14.20577523       5.85836297       0.00000000  F        8       0.00000000       0.00000000       0.00000000
Fe       6.08818939       5.85836297       0.00000000  F        8       0.00000000       0.00000000       0.00000000
Fe      10.14698231       5.85836297       0.00000000  F        8       0.00000000       0.00000000       0.00000000
Fe      16.23517169       9.37338075       0.00000000  F        8       0.00000000       0.00000000       0.00000000
Fe       8.11758585       9.37338075       0.00000000  F        8       0.00000000       0.00000000       0.00000000
Fe      12.17637877       9.37338075       0.00000000  F        8       0.00000000       0.00000000       0.00000000
Fe       0.00000000       0.00000000       0.82849764  F        7       0.00000000       0.00000000       0.00000000
Fe       4.05879292       0.00000000       0.82849764  F        7       0.00000000       0.00000000       0.00000000
Fe       8.11758585       0.00000000       0.82849764  F        7       0.00000000       0.00000000       0.00000000
Fe       2.02939646       3.51501778       0.82849764  F        7       0.00000000       0.00000000       0.00000000
Fe       6.08818939       3.51501778       0.82849764  F        7       0.00000000       0.00000000       0.00000000
Fe      10.14698231       3.51501778       0.82849764  F        7       0.00000000       0.00000000       0.00000000
Fe       4.05879292       7.03003556       0.82849764  F        7       0.00000000       0.00000000       0.00000000
Fe       8.11758585       7.03003556       0.82849764  F        7       0.00000000       0.00000000       0.00000000
Fe      12.17637877       7.03003556       0.82849764  F        7       0.00000000       0.00000000       0.00000000
Fe       2.02939646       1.17167259       1.65699527  F        6       0.00000000       0.00000000       0.00000000
Fe       6.08818939       1.17167259       1.65699527  F        6       0.00000000       0.00000000       0.00000000
Fe      10.14698231       1.17167259       1.65699527  F        6       0.00000000       0.00000000       0.00000000
Fe       4.05879292       4.68669037       1.65699527  F        6       0.00000000       0.00000000       0.00000000
Fe       8.11758585       4.68669037       1.65699527  F        6       0.00000000       0.00000000       0.00000000
Fe      12.17637877       4.68669037       1.65699527  F        6       0.00000000       0.00000000       0.00000000
Fe       6.08818939       8.20170816       1.65699527  F        6       0.00000000       0.00000000       0.00000000
Fe      10.14698231       8.20170816       1.65699527  F        6       0.00000000       0.00000000       0.00000000
Fe      14.20577523       8.20170816       1.65699527  F        6       0.00000000       0.00000000       0.00000000
Fe      12.37263394       2.50747959       2.18193694  T        5       0.73958730       0.65387350      -0.27414721
Fe       3.92212493       2.54079229       2.26770710  T        5       0.00429262       1.32774973       1.13934508
Fe       8.14767180       2.36653833       2.18837280  T        5       0.40489260      -0.36188371       1.24331732
Fe      14.33662627       5.95713075       2.11239176  T        5       2.39619185      -0.59140759      -1.85604440
Fe       6.04737699       5.51830748       2.27849612  T        5      -0.72308278      -1.69086704       0.86734089
Fe      10.17961123       5.38177976       2.18955040  T        5       0.74297090      -2.92375141      -0.14453408
Fe      16.36707390       9.41932701       2.36351859  T        5       1.56686650      -0.24966276       0.82811613
Fe       7.96689294       9.32732954       2.31515951  T        5      -2.34045014       0.56688879       1.49948048
Fe      11.99730220       9.28271412       2.23290955  T        5      -2.32230723      -2.52061663      -1.37411266
Fe       0.19468312       0.24925984       3.01697540  T        4       0.70872106       0.09586389      -1.18949020
Fe       3.97949978       0.27791948       2.97443502  T        4       1.08391403       0.51085840      -1.53140809
Fe       8.11680242       0.16704188       2.99881840  T        4      -0.17844479      -0.52403426       0.76360556
Fe      14.16413570       3.95265071       3.18669702  T        4      -1.21949941       0.89967330       1.73385832
Fe       6.09355939       3.07242608       3.20316274  T        4      -0.19546435      -0.96970164       1.97531953
Fe      10.04174242       3.37493267       3.16416688  T        4      -0.87171936       2.37444714      -1.03984379
Fe       4.25724146       7.01857083       3.05254167  T        4      -1.42647276      -0.55088823      -0.09025551
Fe       8.00675958       6.79447410       2.96183377  T        4      -1.87634295      -0.97044451      -1.41290420
Fe      11.96775859       6.87196545       3.02269108  T        4       1.44250738      -3.41074871      -0.43588444
Fe       2.01548903       1.61359464       3.95565723  T        3      -0.00746932       1.76281294       0.25933742
Fe       6.02698030       0.82438196       3.94249721  T        3       0.04588866      -0.10668737      -1.07700845
Fe      10.24340568       0.75242277       4.03469984  T        3       0.48605338      -1.18728757       0.39980238
Fe       4.18275759       4.70636268       3.94968257  T        3      -1.39984420      -0.04518855       0.32385756
Fe       8.30772350       4.76849007       3.87930964  T        3       2.65122376       1.47921526       0.03918133
Fe      11.97355428       4.75331961       4.01203449  T        3       0.75302612       1.17551822       1.49871455
Fe       6.36740651       8.46250805       4.05465593  T        3       1.84198896       0.06848935       2.12301493
Fe       9.98882071       8.44956622       3.94027598  T        3       0.80526735       0.25815360       0.11976595
Fe      14.28101538       7.88020264       4.00622362  T        3       1.27230417      -0.24083961       1.51190648
Fe      12.02040122       2.10748496       4.43146397  T        2       0.67523733      -2.50265617      -0.71811589
Fe       4.18754505       2.15285186       4.54492666  T        2      -1.39337020      -2.05667814       1.53026746
Fe       8.20786683       2.28636568       4.56495336  T        2       1.49481120       1.05869139       0.61875374
Fe      14.29015785       5.46995736       4.64415772  T        2       1.53807099      -0.33759862       1.17827495
Fe       6.13724351       6.00574155       4.53534936  T        2      -1.45594648      -1.56595536       1.23343330
Fe       9.99728919       6.07968410       4.52921880  T        2      -0.39808557       0.23611847       0.79369530
Fe      16.24971807       8.97468647       4.64169655  T        2       0.28522277      -0.27231768       0.85322496
Fe       8.25664966       9.98600536       4.49198076  T        2       2.89738010       2.08787901       0.39584928
Fe      12.26410450       9.01025466       4.47371794  T        2       1.42824835       0.62154492      -2.55262943
Fe      17.91313599      10.23792756       5.12909677  T        1       0.45839632      -0.66582399      -0.39726286
Fe      10.55774097      10.38407377       5.17421948  T        1       1.19003242       1.63527280      -0.54423048
Fe      14.27046030       9.95686172       5.21376565  T        1       1.35611269      -0.08844319       2.90927586
Fe       2.06605977       3.35997218       5.35453930  T        1       0.81121812      -0.26381064       3.08054564
Fe       6.24954431       4.10521629       5.39226854  T        1       0.72698936       2.26684198       2.42936815
Fe      10.01035210       3.87217063       5.13407624  T        1       1.23381961      -1.25512760      -0.53458938
Fe       4.04358418       6.79105074       5.31710409  T        1       4.99331868       1.62530015       1.88244122
Fe       8.20049195       7.59045323       5.17414574  T        1       1.77410158      -1.20347604      -0.75288814
Fe      12.46077076       6.80555578       5.27937903  T        1       0.70028320       2.07941494       0.78475340
N        7.57312588       3.24132976       6.34369340  T        0      -0.75746481       0.28192745       0.19522667
N        8.84783971       3.33429764       6.32993256  T        0       0.70087232       0.23049476       0.50177519
74
Lattice="12.176378772032349 0.0 0.0 6.088189386016174 10.545053342681582 0.0 0.0 0.0 20.0" Properties=species:S:1:pos:R:3:move_mask:L:1:tags:I:1:momenta:R:3 pbc="T T F"
Fe      12.17637877       2.34334519       0.00000000  F        8       0.00000000       0.00000000       0.00000000
Fe       4.05879292       2.34334519       0.00000000  F        8       0.00000000       0.00000000       0.00000000
Fe       8.11758585       2.34334519       0.00000000  F        8       0.00000000       0.00000000       0.00000000
Fe      14.20577523       5.85836297       0.00000000  F        8       0.00000000       0.00000000       0.00000000
Fe       6.08818939       5.85836297       0.00000000  F        8       0.00000000       0.00000000       0.00000000
Fe      10.14698231       5.85836297       0.00000000  F        8       0.00000000       0.00000000       0.00000000
Fe      16.23517169       9.37338075       0.00000000  F        8       0.00000000       0.00000000       0.00000000
Fe       8.11758585       9.37338075       0.00000000  F        8       0.00000000       0.00000000       0.00000000
Fe      12.17637877       9.37338075       0.00000000  F        8       0.00000000       0.00000000       0.00000000
Fe       0.00000000       0.00000000       0.82849764  F        7       0.00000000       0.00000000       0.00000000
Fe       4.05879292       0.00000000       0.82849764  F        7       0.00000000       0.00000000       0.00000000
Fe       8.11758585       0.00000000       0.82849764  F        7       0.00000000       0.00000000       0.00000000
Fe       2.02939646       3.51501778       0.82849764  F        7       0.00000000       0.00000000       0.00000000
Fe       6.08818939       3.51501778       0.82849764  F        7       0.00000000       0.00000000       0.00000000
Fe      10.14698231       3.51501778       0.82849764  F        7       0.00000000       0.00000000       0.00000000
Fe       4.05879292       7.03003556       0.82849764  F        7       0.00000000       0.00000000       0.00000000
Fe       8.11758585       7.03003556       0.82849764  F        7       0.00000000       0.00000000       0.00000000
Fe      12.17637877       7.03003556       0.82849764  F        7       0.00000000       0.00000000       0.00000000
Fe       2.02939646       1.17167259       1.65699527  F        6       0.00000000       0.00000000       0.00000000
Fe       6.08818939       1.17167259       1.65699527  F        6       0.00000000       0.00000000       0.00000000
Fe      10.14698231       1.17167259       1.65699527  F        6       0.00000000       0.00000000       0.00000000
Fe       4.05879292       4.68669037       1.65699527  F        6       0.00000000       0.00000000       0.00000000
Fe       8.11758585       4.68669037       1.65699527  F        6       0.00000000       0.00000000       0.00000000
Fe      12.17637877       4.68669037       1.65699527  F        6       0.00000000       0.00000000       0.00000000
Fe       6.08818939       8.20170816       1.65699527  F        6       0.00000000       0.00000000       0.00000000
Fe      10.14698231       8.20170816       1.65699527  F        6       0.00000000       0.00000000       0.00000000
Fe      14.20577523       8.20170816       1.65699527  F        6       0.00000000       0.00000000       0.00000000
Fe      12.37327917       2.50805988       2.18169971  T        5       0.72601168       0.66428229      -0.26470643
Fe       3.92212523       2.54196589       2.26870819  T        5      -0.00362993       1.33814670       1.13469255
Fe       8.14802394       2.36621765       2.18946402  T        5       0.39496022      -0.36660350       1.23540449
Fe      14.33872968       5.95662069       2.11076210  T        5       2.38166696      -0.56717468      -1.84562917
Fe       6.04674522       5.51682092       2.27925950  T        5      -0.71191022      -1.68590009       0.86673667
Fe      10.18026484       5.37924401       2.18943809  T        5       0.74170594      -2.83553427      -0.11050756
Fe      16.36844888       9.41910530       2.36424177  T        5       1.55640861      -0.25399925       0.81454344
Fe       7.96484829       9.32782248       2.31647289  T        5      -2.30377945       0.55278738       1.48382828
Fe      11.99526659       9.28050364       2.23170307  T        5      -2.30153828      -2.50049558      -1.36647475
Fe       0.19530556       0.24933971       3.01592752  T        4       0.70508808       0.08549256      -1.19068171
Fe       3.98044294       0.27836157       2.97309622  T        4       1.05836590       0.49330781      -1.50958030
Fe       8.11664204       0.16656962       2.99950336  T        4      -0.18591586      -0.54891593       0.79237071
Fe      14.16305309       3.95342012       3.18819918  T        4      -1.23986608       0.84798482       1.67835101
Fe       6.09338977       3.07158615       3.20491231  T        4      -0.18980117      -0.93807971       1.99895176
Fe      10.04099168       3.37697753       3.16321845  T        4      -0.83351455       2.26993157      -1.11450802
Fe       4.25599128       7.01808827       3.05246809  T        4      -1.41335675      -0.54525940      -0.07682392
Fe       8.00511438       6.79364001       2.96060171  T        4      -1.86082310      -0.92402386      -1.38571439
Fe      11.96902730       6.86896877       3.02231829  T        4       1.43946097      -3.39616685      -0.41086121
Fe       2.01548827       1.61514066       3.95587996  T        3       0.00581345       1.74901459       0.24654708
Fe       6.02703909       0.82429064       3.94154941  T        3       0.08790152      -0.10066159      -1.07600655
Fe      10.24381184       0.75138720       4.03504460  T        3       0.43635997      -1.16499756       0.38330540
Fe       4.18153896       4.70631527       3.94997330  T        3      -1.36815351      -0.06262396       0.33659624
Fe       8.31003092       4.76978582       3.87935308  T        3       2.58986320       1.46404200       0.05976923
Fe      11.97422434       4.75435200       4.01335843  T        3       0.76916250       1.16949805       1.50878688
Fe       6.36903755       8.46255213       4.05651550  T        3       1.86309177       0.03155966       2.10107414
Fe       9.98952531       8.44978684       3.94037806  T        3       0.79528529       0.24298102       0.11211901
Fe      14.28213007       7.87998628       4.00755002  T        3       1.25970823      -0.25069132       1.50105924
Fe      12.02099139       2.10529899       4.43083555  T        2       0.66528119      -2.46263929      -0.70925077
Fe       4.18631849       2.15104800       4.54627590  T        2      -1.39287665      -2.04077894       1.53466554
Fe       8.20917577       2.28729286       4.56549906  T        2       1.47845843       1.04761331       0.62130800
Fe      14.29150763       5.46968914       4.64521606  T        2       1.52792750      -0.27153742       1.22595902
Fe       6.13596131       6.00437752       4.53643047  T        2      -1.45662865      -1.53220283       1.22226407
Fe       9.99694386       6.07991161       4.52990794  T        2      -0.38621075       0.28083369       0.77168340
Fe      16.24995673       8.97443882       4.64244792  T        2       0.25683467      -0.29027771       0.85357194
Fe       8.25920199       9.98783896       4.49233112  T        2       2.90035979       2.07722341       0.40004693
Fe      12.26536737       9.01079819       4.47147031  T        2       1.44051817       0.61310792      -2.55300001
Fe      17.91355387      10.23735101       5.12877097  T        1       0.49101461      -0.64375095      -0.34270063
Fe      10.55878449      10.38550866       5.17374367  T        1       1.18035503       1.62406682      -0.53655150
Fe      14.27165570       9.95678457       5.21631173  T        1       1.35936791      -0.08686030       2.87414132
Fe       2.06677567       3.35973936       5.35725230  T        1       0.81503989      -0.26498581       3.08199400
Fe       6.25019013       4.10719604       5.39439761  T        1       0.74008341       2.22992204       2.40694153
Fe      10.01145858       3.87107328       5.13364595  T        1       1.27939079      -1.23770818      -0.44227582
Fe       4.04798135       6.79247877       5.31875439  T        1       4.99526463       1.61855180       1.86625853
Fe       8.20205585       7.58939291       5.17347041  T        1       1.77841033      -1.20509918      -0.78118235
Fe      12.46139333       6.80738708       5.28005610  T        1       0.71396760       2.08054854       0.75312647
N        7.57054322       3.24234292       6.34436888  T        0      -0.71013765       0.29553970       0.18932659
N        8.85016759       3.33506619       6.33170882  T        0       0.62202120       0.20711350       0.50979615
74
Lattice="12.176378772032349 0.0 0.0 6.088189386016174 10.545053342681582 0.0 0.0 0.0 20.0" Properties=species:S:1:pos:R:3:move_mask:L:1:tags:I:1:momenta:R:3 pbc="T T F"
Fe      12.17637877       2.34334519       0.00000000  F        8       0.00000000       0.00000000       0.00000000
Fe       4.05879292       2.34334519       0.00000000  F        8       0.00000000       0.00000000       0.00000000
Fe       8.11758585       2.34334519       0.00000000  F        8       0.00000000       0.00000000       0.00000000
Fe      14.20577523       5.85836297       0.00000000  F        8       0.00000000       0.00000000       0.00000000
Fe       6.08818939       5.85836297       0.00000000  F        8       0.00000000       0.00000000       0.00000000
Fe      10.14698231       5.85836297       0.00000000  F        8       0.00000000       0.00000000       0.00000000
Fe      16.23517169       9.37338075       0.00000000  F        8       0.00000000       0.00000000       0.00000000
Fe       8.11758585       9.37338075       0.00000000  F        8       0.00000000       0.00000000       0.00000000
Fe      12.17637877       9.37338075       0.00000000  F        8       0.00000000       0.00000000       0.00000000
Fe       0.00000000       0.00000000       0.82849764  F        7       0.00000000       0.00000000       0.00000000
Fe       4.05879292       0.00000000       0.82849764  F        7       0.00000000       0.00000000       0.00000000
Fe       8.11758585       0.00000000       0.82849764  F        7       0.00000000       0.00000000       0.00000000
Fe       2.02939646       3.51501778       0.82849764  F        7       0.00000000       0.00000000       0.00000000
Fe       6.08818939       3.51501778       0.82849764  F        7       0.00000000       0.00000000       0.00000000
Fe      10.14698231       3.51501778       0.82849764  F        7       0.00000000       0.00000000       0.00000000
Fe       4.05879292       7.03003556       0.82849764  F        7       0.00000000       0.00000000       0.00000000
Fe       8.11758585       7.03003556       0.82849764  F        7       0.00000000       0.00000000       0.00000000
Fe      12.17637877       7.03003556       0.82849764  F        7       0.00000000       0.00000000       0.00000000
Fe       2.02939646       1.17167259       1.65699527  F        6       0.00000000       0.00000000       0.00000000
Fe       6.08818939       1.17167259       1.65699527  F        6       0.00000000       0.00000000       0.00000000
Fe      10.14698231       1.17167259       1.65699527  F        6       0.00000000       0.00000000       0.00000000
Fe       4.05879292       4.68669037       1.65699527  F        6       0.00000000       0.00000000       0.00000000
Fe       8.11758585       4.68669037       1.65699527  F        6       0.00000000       0.00000000       0.00000000
Fe      12.17637877       4.68669037       1.65699527  F        6       0.00000000       0.00000000       0.00000000
Fe       6.08818939       8.20170816       1.65699527  F        6       0.00000000       0.00000000       0.00000000
Fe      10.14698231       8.20170816       1.65699527  F        6       0.00000000       0.00000000       0.00000000
Fe      14.20577523       8.20170816       1.65699527  F        6       0.00000000       0.00000000       0.00000000
Fe      12.37391448       2.50865125       2.18147005  T        5       0.71463242       0.67682403      -0.25607411
Fe       3.92211853       2.54315251       2.26970847  T        5      -0.01159794       1.35287380       1.13374522
Fe       8.14836843       2.36589172       2.19055181  T        5       0.38618246      -0.37259444       1.23142255
Fe      14.34082706       5.95613036       2.10913644  T        5       2.37458786      -0.54470098      -1.84088073
Fe       6.04612132       5.51533388       2.28002487  T        5      -0.70284496      -1.68637045       0.86897467
Fe      10.18091945       5.37677844       2.18935549  T        5       0.74280224      -2.75494751      -0.07669586
Fe      16.36981910       9.41887901       2.36495528  T        5       1.55090486      -0.25924737       0.80343867
Fe       7.96282953       9.32830454       2.31777668  T        5      -2.27403075       0.54033145       1.47277963
Fe      11.99324274       9.27830375       2.23049936  T        5      -2.28794365      -2.48829172      -1.36327476
Fe       0.19592675       0.24941063       3.01487527  T        4       0.70355475       0.07524547      -1.19545660
Fe       3.98136653       0.27878958       2.97177242  T        4       1.03593606       0.47721964      -1.49235233
Fe       8.11647450       0.16607370       3.00021598  T        4      -0.19406436      -0.57594061       0.82380941
Fe      14.16194882       3.95414638       3.18965729  T        4      -1.26460573       0.79886248       1.62827532
Fe       6.09322461       3.07077149       3.20668850  T        4      -0.18471983      -0.90923197       2.02916512
Fe      10.04027227       3.37893638       3.16220111  T        4      -0.79778306       2.17157095      -1.19263074
Fe       4.25474858       7.01760910       3.05240617  T        4      -1.40480281      -0.54137430      -0.06355212
Fe       8.00347746       6.79284431       2.95938965  T        4      -1.85136521      -0.88017957      -1.36290135
Fe      11.97029751       6.86597528       3.02196641  T        4       1.44116389      -3.39224547      -0.38701656
Fe       2.01549928       1.61667955       3.95609209  T        3       0.01926000       1.74084093       0.23442713
Fe       6.02713534       0.82420442       3.94059935  T        3       0.13068057      -0.09478179      -1.07853766
Fe      10.24417533       0.75036795       4.03537591  T        3       0.38768128      -1.14635075       0.36799383
Fe       4.18034444       4.70625223       3.95027626  T        3      -1.34056440      -0.08048291       0.35054344
Fe       8.31229150       4.77107234       3.87941506  T        3       2.53626532       1.45340623       0.08107554
Fe      11.97491093       4.75538237       4.01469569  T        3       0.78802152       1.16706501       1.52400877
Fe       6.37069264       8.46256371       4.05836180  T        3       1.89044374      -0.00545055       2.08593692
Fe       9.99022343       8.44999479       3.94047373  T        3       0.78792295       0.22855439       0.10482445
Fe      14.28323725       7.87976047       4.00887119  T        3       1.25106605      -0.26145993       1.49505961
Fe      12.02157465       2.10314136       4.43021300  T        2       0.65733790      -2.43013984      -0.70242014
Fe       4.18508830       2.14925233       4.54763351  T        2      -1.39698731      -2.03131461       1.54419968
Fe       8.21047453       2.28821346       4.56604922  T        2       1.46680082       1.04027824       0.62677073
Fe      14.29285281       5.46947842       4.64632007  T        2       1.52257808      -0.20613050       1.27796391
Fe       6.13467431       6.00303905       4.53750519  T        2      -1.46199366      -1.50282027       1.21486108
Fe       9.99660799       6.08017943       4.53057990  T        2      -0.37535027       0.32676381       0.75211041
Fe      16.25017108       8.97417448       4.64320208  T        2       0.22914727      -0.30925461       0.85675905
Fe       8.26176532       9.98966917       4.49268636  T        2       2.91278968       2.07328961       0.40563742
Fe      12.26664529       9.01133606       4.46921496  T        2       1.45767291       0.60668879      -2.56173542
Fe      17.91400204      10.23679212       5.12849231  T        1       0.52555181      -0.62356981      -0.28908238
Fe      10.55982288      10.38693830       5.17327311  T        1       1.17446712       1.61796557      -0.53051560
Fe      14.27285795       9.95670852       5.21883507  T        1       1.36718523      -0.08563461       2.84810645
Fe       2.06749733       3.35950480       5.35997532  T        1       0.82161212      -0.26688457       3.09307189
Fe       6.25084966       4.10914943       5.39651390  T        1       0.75563474       2.19958749       2.39233658
Fe      10.01260869       3.86998756       5.13329615  T        1       1.32869180      -1.22465059      -0.35032759
Fe       4.05239483       6.79390554       5.32039580  T        1       5.01383325       1.61708011       1.85607698
Fe       8.20362871       7.58832767       5.17276789  T        1       1.78855683      -1.21068493      -0.81208027
Fe      12.46203006       6.80922545       5.28070740  T        1       0.73009883       2.08858287       0.72372499
N        7.56813208       3.24340804       6.34502478  T        0      -0.65785825       0.31051703       0.18349745
N        8.85221386       3.33575409       6.33351753  T        0       0.53887942       0.18391955       0.51855017
74
Lattice="12.176378772032349 0.0 0.0 6.088189386016174 10.545053342681582 0.0 0.0 0.0 20.0" Properties=species:S:1:pos:R:3:move_mask:L:1:tags:I:1:momenta:R:3 pbc="T T F"
Fe      12.17637877       2.34334519       0.00000000  F        8       0.00000000       0.00000000       0.00000000
Fe       4.05879292       2.34334519       0.00000000  F        8       0.00000000       0.00000000       0.00000000
Fe       8.11758585       2.34334519       0.00000000  F        8       0.00000000       0.00000000       0.00000000
Fe      14.20577523       5.85836297       0.00000000  F        8       0.00000000       0.00000000       0.00000000
Fe       6.08818939       5.85836297       0.00000000  F        8       0.00000000       0.00000000       0.00000000
Fe      10.14698231       5.85836297       0.00000000  F        8       0.00000000       0.00000000       0.00000000
Fe      16.23517169       9.37338075       0.00000000  F        8       0.00000000       0.00000000       0.00000000
Fe       8.11758585       9.37338075       0.00000000  F        8       0.00000000       0.00000000       0.00000000
Fe      12.17637877       9.37338075       0.00000000  F        8       0.00000000       0.00000000       0.00000000
Fe       0.00000000       0.00000000       0.82849764  F        7       0.00000000       0.00000000       0.00000000
Fe       4.05879292       0.00000000       0.82849764  F        7       0.00000000       0.00000000       0.00000000
Fe       8.11758585       0.00000000       0.82849764  F        7       0.00000000       0.00000000       0.00000000
Fe       2.02939646       3.51501778       0.82849764  F        7       0.00000000       0.00000000       0.00000000
Fe       6.08818939       3.51501778       0.82849764  F        7       0.00000000       0.00000000       0.00000000
Fe      10.14698231       3.51501778       0.82849764  F        7       0.00000000       0.00000000       0.00000000
Fe       4.05879292       7.03003556       0.82849764  F        7       0.00000000       0.00000000       0.00000000
Fe       8.11758585       7.03003556       0.82849764  F        7       0.00000000       0.00000000       0.00000000
Fe      12.17637877       7.03003556       0.82849764  F        7       0.00000000       0.00000000       0.00000000
Fe       2.02939646       1.17167259       1.65699527  F        6       0.00000000       0.00000000       0.00000000
Fe       6.08818939       1.17167259       1.65699527  F        6       0.00000000       0.00000000       0.00000000
Fe      10.14698231       1.17167259       1.65699527  F        6       0.00000000       0.00000000       0.00000000
Fe       4.05879292       4.68669037       1.65699527  F        6       0.00000000       0.00000000       0.00000000
Fe       8.11758585       4.68669037       1.65699527  F        6       0.00000000       0.00000000       0.00000000
Fe      12.17637877       4.68669037       1.65699527  F        6       0.00000000       0.00000000       0.00000000
Fe       6.08818939       8.20170816       1.65699527  F        6       0.00000000       0.00000000       0.00000000
Fe      10.14698231       8.20170816       1.65699527  F        6       0.00000000       0.00000000       0.00000000
Fe      14.20577523       8.20170816       1.65699527  F        6       0.00000000       0.00000000       0.00000000
Fe      12.37453077       2.50924527       2.18125123  T        5       0.69292976       0.67978463      -0.24373594
Fe       3.92210492       2.54433531       2.27069383  T        5      -0.01945693       1.34845620       1.11675495
Fe       8.14870030       2.36556509       2.19162073  T        5       0.37177782      -0.37340572       1.20990108
Fe      14.34288853       5.95566670       2.10753799  T        5       2.33355237      -0.51436627      -1.80969651
Fe       6.04551426       5.51386742       2.28078142  T        5      -0.68358871      -1.66291045       0.85893435
Fe      10.18156578       5.37441900       2.18930376  T        5       0.73332572      -2.63350947      -0.04155609
Fe      16.37116513       9.41865126       2.36564891  T        5       1.52331241      -0.26092614       0.78074152
Fe       7.96086557       9.32876882       2.31905231  T        5      -2.21141016       0.52003313       1.44061661
Fe      11.99125949       9.27614566       2.22931543  T        5      -2.24158874      -2.44059306      -1.34075142
Fe       0.19653776       0.24947150       3.01383380  T        4       0.69185258       0.06374838      -1.18301030
Fe       3.98225728       0.27919737       2.97048252  T        4       0.99844596       0.45418680      -1.45362628
Fe       8.11630215       0.16556092       3.00094618  T        4      -0.19956173      -0.59524889       0.84376801
Fe      14.16083827       3.95481925       3.19105093  T        4      -1.27184263       0.73811748       1.55499280
Fe       6.09306626       3.06999373       3.20846618  T        4      -0.17697409      -0.86714633       2.03081149
Fe      10.03959444       3.38078081       3.16112969  T        4      -0.75041271       2.04095572      -1.25384697
Fe       4.25353091       7.01714011       3.05235679  T        4      -1.37629123      -0.52978032      -0.04925293
Fe       8.00187191       6.79209847       2.95821473  T        4      -1.81567156      -0.82331768      -1.32059041
Fe      11.97155135       6.86302761       3.02164047  T        4       1.42252941      -3.33987225      -0.35746485
Fe       2.01552200       1.61818956       3.95629054  T        3       0.03261762       1.70792397       0.21882023
Fe       6.02726797       0.82412464       3.93966046  T        3       0.17221187      -0.08735477      -1.06582916
Fe      10.24449083       0.74937948       4.03568910  T        3       0.33297821      -1.11127222       0.34737565
Fe       4.17919110       4.70617431       3.95058724  T        3      -1.29356395      -0.09747875       0.35968447
Fe       8.31447292       4.77233131       3.87949508  T        3       2.44595421       1.42192684       0.10181458
Fe      11.97560447       4.75639599       4.01602757  T        3       0.79598463       1.14786705       1.51794305
Fe       6.37234847       8.46254259       4.06016880  T        3       1.89128491      -0.04266083       2.04118732
Fe       9.99090527       8.45018713       3.94056165  T        3       0.76941670       0.21080732       0.09600938
Fe      14.28432118       7.87952836       4.01016846  T        3       1.22453766      -0.26866096       1.46783317
Fe      12.02214265       2.10104285       4.42960533  T        2       0.63990628      -2.36263901      -0.68534569
Fe       4.18387181       2.14749036       4.54898041  T        2      -1.38139665      -1.99284928       1.53203982
Fe       8.21174472       2.28911479       4.56659678  T        2       1.43423669       1.01848990       0.62417032
Fe      14.29417427       5.46932813       4.64745428  T        2       1.49547662      -0.13741082       1.31233515
Fe       6.13340078       6.00174548       4.53855817  T        2      -1.44660856      -1.45145041       1.19001773
Fe       9.99628648       6.08048390       4.53122518  T        2      -0.35890047       0.36848235       0.72175538
Fe      16.25035806       8.97389719       4.64394844  T        2       0.19801341      -0.32396892       0.84788722
Fe       8.26430343       9.99147011       4.49304155  T        2       2.88401978       2.03994566       0.40559126
Fe      12.26792033       9.01186074       4.46698370  T        2       1.45443429       0.59168461      -2.53427905
Fe      17.91447432      10.23625889       5.12826468  T        1       0.55305752      -0.59430026      -0.23106418
Fe      10.56084144      10.38834236       5.17281453  T        1       1.15188209       1.58875298      -0.51684857
Fe      14.27405018       9.95663459       5.22129989  T        1       1.35580647      -0.08326788       2.78140814
Fe       2.06821464       3.35927194       5.36266949  T        1       0.81666772      -0.26486132       3.05996601
Fe       6.25151355       4.11104839       5.39858754  T        1       0.76052195       2.13736070       2.34377058
Fe      10.01378564       3.86892844       5.13303239  T        1       1.35887658      -1.19456457      -0.25212542
Fe       4.05676256       6.79531091       5.32200512  T        1       4.96182354       1.59271341       1.81951236
Fe       8.20518832       7.58727253       5.17204814  T        1       1.77345550      -1.19918486      -0.83162586
Fe      12.46267202       6.81104502       5.28132363  T        1       0.73606277       2.06719492       0.68376617
N        7.56594959       3.24451116       6.34565019  T        0      -0.58977968       0.32147259       0.17462519
N        8.85393042       3.33635044       6.33532970  T        0       0.44253993       0.15766737       0.51903037
74
Lattice="12.176378772032349 0.0 0.0 6.088189386016174 10.545053342681582 0.0 0.0 0.0 20.0" Properties=species:S:1:pos:R:3:move_mask:L:1:tags:I:1:momenta:R:3 pbc="T T F"
Fe      12.17637877       2.34334519       0.00000000  F        8       0.00000000       0.00000000       0.00000000
Fe       4.05879292       2.34334519       0.00000000  F        8       0.00000000       0.00000000       0.00000000
Fe       8.11758585       2.34334519       0.00000000  F        8       0.00000000       0.00000000       0.00000000
Fe      14.20577523       5.85836297       0.00000000  F        8       0.00000000       0.00000000       0.00000000
Fe       6.08818939       5.85836297       0.00000000  F        8       0.00000000       0.00000000       0.00000000
Fe      10.14698231       5.85836297       0.00000000  F        8       0.00000000       0.00000000       0.00000000
Fe      16.23517169       9.37338075       0.00000000  F        8       0.00000000       0.00000000       0.00000000
Fe       8.11758585       9.37338075       0.00000000  F        8       0.00000000       0.00000000       0.00000000
Fe      12.17637877       9.37338075       0.00000000  F        8       0.00000000       0.00000000       0.00000000
Fe       0.00000000       0.00000000       0.82849764  F        7       0.00000000       0.00000000       0.00000000
Fe       4.05879292       0.00000000       0.82849764  F        7       0.00000000       0.00000000       0.00000000
Fe       8.11758585       0.00000000       0.82849764  F        7       0.00000000       0.00000000       0.00000000
Fe       2.02939646       3.51501778       0.82849764  F        7       0.00000000       0.00000000       0.00000000
Fe       6.08818939       3.51501778       0.82849764  F        7       0.00000000       0.00000000       0.00000000
Fe      10.14698231       3.51501778       0.82849764  F        7       0.00000000       0.00000000       0.00000000
Fe       4.05879292       7.03003556       0.82849764  F        7       0.00000000       0.00000000       0.00000000
Fe       8.11758585       7.03003556       0.82849764  F        7       0.00000000       0.00000000       0.00000000
Fe      12.17637877       7.03003556       0.82849764  F        7       0.00000000       0.00000000       0.00000000
Fe       2.02939646       1.17167259       1.65699527  F        6       0.00000000       0.00000000       0.00000000
Fe       6.08818939       1.17167259       1.65699527  F        6       0.00000000       0.00000000       0.00000000
Fe      10.14698231       1.17167259       1.65699527  F        6       0.00000000       0.00000000       0.00000000
Fe       4.05879292       4.68669037       1.65699527  F        6       0.00000000       0.00000000       0.00000000
Fe       8.11758585       4.68669037       1.65699527  F        6       0.00000000       0.00000000       0.00000000
Fe      12.17637877       4.68669037       1.65699527  F        6       0.00000000       0.00000000       0.00000000
Fe       6.08818939       8.20170816       1.65699527  F        6       0.00000000       0.00000000       0.00000000
Fe      10.14698231       8.20170816       1.65699527  F        6       0.00000000       0.00000000       0.00000000
Fe      14.20577523       8.20170816       1.65699527  F        6       0.00000000       0.00000000       0.00000000
Fe      12.37513387       2.50984751       2.18104114  T        5       0.67782746       0.68907250      -0.23377984
Fe       3.92208429       2.54552547       2.27167369  T        5      -0.02743830       1.35675029       1.11049177
Fe       8.14902267       2.36523461       2.19268095  T        5       0.36090528      -0.37780365       1.19992935
Fe      14.34493355       5.95522520       2.10595180  T        5       2.31464734      -0.48914712      -1.79554421
Fe       6.04491837       5.51240756       2.28153639  T        5      -0.67077754      -1.65532468       0.85711677
Fe      10.18220993       5.37214409       2.18928236  T        5       0.73080048      -2.53666127      -0.00707031
Fe      16.37249977       9.41841984       2.36632920  T        5       1.51027086      -0.26513033       0.76547469
Fe       7.95893798       9.32921968       2.32031182  T        5      -2.16974381       0.50470987       1.42216059
Fe      11.98929808       9.27400888       2.22813996  T        5      -2.21654707      -2.41619784      -1.33110259
Fe       0.19714425       0.24952281       3.01279346  T        4       0.68659219       0.05283009      -1.18152517
Fe       3.98312355       0.27958884       2.96921438  T        4       0.97046518       0.43555949      -1.42871593
Fe       8.11612332       0.16502621       3.00170081  T        4      -0.20694880      -0.62030214       0.87153402
Fe      14.15971068       3.95544529       3.19239371  T        4      -1.29129780       0.68488343       1.49722024
Fe       6.09291318       3.06924552       3.21026224  T        4      -0.17095254      -0.83343233       2.05164287
Fe      10.03895172       3.38252798       3.15999464  T        4      -0.71041923       1.92986627      -1.32583947
Fe       4.25232664       7.01667682       3.05231949  T        4      -1.36102494      -0.52327599      -0.03549467
Fe       8.00028231       6.79139547       2.95706572  T        4      -1.79749519      -0.77444344      -1.29107162
Fe      11.97280083       6.86009791       3.02133735  T        4       1.41756967      -3.31913478      -0.33146553
Fe       2.01555668       1.61968509       3.95647716  T        3       0.04627213       1.69139952       0.20532204
Fe       6.02743840       0.82405069       3.93872375  T        3       0.21536036      -0.08064236      -1.06332198
Fe      10.24476129       0.74841237       4.03598721  T        3       0.28166291      -1.08692171       0.33022615
Fe       4.17806807       4.70608069       3.95090922  T        3      -1.25894143      -0.11542572       0.37222716
Fe       8.31659580       4.77357460       3.87959423  T        3       2.37909999       1.40396309       0.12378367
Fe      11.97631167       4.75740234       4.01736691  T        3       0.81154577       1.13945438       1.52649688
Fe       6.37402085       8.46248864       4.06195381  T        3       1.91009509      -0.07999798       2.01614769
Fe       9.99157742       8.45036576       3.94064269  T        3       0.75840808       0.19521075       0.08818279
Fe      14.28539215       7.87928769       4.01145422  T        3       1.20969982      -0.27841354       1.45470220
Fe      12.02270073       2.09898368       4.42900695  T        2       0.62853925      -2.31767298      -0.67464042
Fe       4.18265737       2.14574539       4.55032953  T        2      -1.37905906      -1.97338098       1.53459370
Fe       8.21299845       2.29000576       4.56714761  T        2       1.41546567       1.00680452       0.62817774
Fe      14.29548449       5.46923661       4.64862947  T        2       1.48259607      -0.07060220       1.35895715
Fe       6.13212862       6.00048484       4.53959934  T        2      -1.44495256      -1.41371624       1.17644608
Fe       9.99597641       6.08082788       4.53185001  T        2      -0.34577800       0.41345013       0.69846936
Fe      16.25051953       8.97360437       4.64469416  T        2       0.16899826      -0.34161355       0.84716650
Fe       8.26684051       9.99325899       4.49340011  T        2       2.88274673       2.02615271       0.40945740
Fe      12.26920475       9.01237729       4.46475523  T        2       1.46512613       0.58245089      -2.53106209
Fe      17.91497529      10.23574629       5.12808569  T        1       0.58575148      -0.57076945      -0.17576263
Fe      10.56184991      10.38973413       5.17236358  T        1       1.14035781       1.57465291      -0.50810616
Fe      14.27524385       9.95656199       5.22372968  T        1       1.35746905      -0.08178753       2.74140851
Fe       2.06893447       3.35903871       5.36536013  T        1       0.81956919      -0.26519891       3.05561918
Fe       6.25218800       4.11291067       5.40063838  T        1       0.77244525       2.09533773       2.31776065
Fe      10.01499999       3.86788541       5.13285247  T        1       1.40105726      -1.17644020      -0.15645946
Fe       4.06112646       6.79670834       5.32359771  T        1       4.95749746       1.58363144       1.80043415
Fe       8.20674957       7.58621739       5.17130442  T        1       1.77527596      -1.19915142      -0.85882966
Fe      12.46332536       6.81286322       5.28191066  T        1       0.74901339       2.06564742       0.65048518
N        7.56399415       3.24566351       6.34624996  T        0      -0.52260432       0.33559283       0.16719019
N        8.85531875       3.33686030       6.33715908  T        0       0.34710217       0.13291274       0.52341385
74
Lattice="12.176378772032349 0.0 0.0 6.088189386016174 10.545053342681582 0.0 0.0 0.0 20.0" Properties=species:S:1:pos:R:3:move_mask:L:1:tags:I:1:momenta:R:3 pbc="T T F"
Fe      12.17637877       2.34334519       0.00000000  F        8       0.00000000       0.00000000       0.00000000
Fe       4.05879292       2.34334519       0.00000000  F        8       0.00000000       0.00000000       0.00000000
Fe       8.11758585       2.34334519       0.00000000  F        8       0.00000000       0.00000000       0.00000000
Fe      14.20577523       5.85836297       0.00000000  F        8       0.00000000       0.00000000       0.00000000
Fe       6.08818939       5.85836297       0.00000000  F        8       0.00000000       0.00000000       0.00000000
Fe      10.14698231       5.85836297       0.00000000  F        8       0.00000000       0.00000000       0.00000000
Fe      16.23517169       9.37338075       0.00000000  F        8       0.00000000       0.00000000       0.00000000
Fe       8.11758585       9.37338075       0.00000000  F        8       0.00000000       0.00000000       0.00000000
Fe      12.17637877       9.37338075       0.00000000  F        8       0.00000000       0.00000000       0.00000000
Fe       0.00000000       0.00000000       0.82849764  F        7       0.00000000       0.00000000       0.00000000
Fe       4.05879292       0.00000000       0.82849764  F        7       0.00000000       0.00000000       0.00000000
Fe       8.11758585       0.00000000       0.82849764  F        7       0.00000000       0.00000000       0.00000000
Fe       2.02939646       3.51501778       0.82849764  F        7       0.00000000       0.00000000       0.00000000
Fe       6.08818939       3.51501778       0.82849764  F        7       0.00000000       0.00000000       0.00000000
Fe      10.14698231       3.51501778       0.82849764  F        7       0.00000000       0.00000000       0.00000000
Fe       4.05879292       7.03003556       0.82849764  F        7       0.00000000       0.00000000       0.00000000
Fe       8.11758585       7.03003556       0.82849764  F        7       0.00000000       0.00000000       0.00000000
Fe      12.17637877       7.03003556       0.82849764  F        7       0.00000000       0.00000000       0.00000000
Fe       2.02939646       1.17167259       1.65699527  F        6       0.00000000       0.00000000       0.00000000
Fe       6.08818939       1.17167259       1.65699527  F        6       0.00000000       0.00000000       0.00000000
Fe      10.14698231       1.17167259       1.65699527  F        6       0.00000000       0.00000000       0.00000000
Fe       4.05879292       4.68669037       1.65699527  F        6       0.00000000       0.00000000       0.00000000
Fe       8.11758585       4.68669037       1.65699527  F        6       0.00000000       0.00000000       0.00000000
Fe      12.17637877       4.68669037       1.65699527  F        6       0.00000000       0.00000000       0.00000000
Fe       6.08818939       8.20170816       1.65699527  F        6       0.00000000       0.00000000       0.00000000
Fe      10.14698231       8.20170816       1.65699527  F        6       0.00000000       0.00000000       0.00000000
Fe      14.20577523       8.20170816       1.65699527  F        6       0.00000000       0.00000000       0.00000000
Fe      12.37572256       2.51045683       2.18084018  T        5       0.66136737       0.69705722      -0.22337188
Fe       3.92205668       2.54672081       2.27264634  T        5      -0.03537880       1.36254914       1.10227039
Fe       8.14933486       2.36490082       2.19373050  T        5       0.34927497      -0.38159470       1.18773922
Fe      14.34695825       5.95480666       2.10438099  T        5       2.29131664      -0.46303922      -1.77782465
Fe       6.04433487       5.51095695       2.28228844  T        5      -0.65657856      -1.64473182       0.85378495
Fe      10.18285071       5.36995893       2.18929133  T        5       0.72690177      -2.43388522       0.02748702
Fe      16.37382056       9.41818509       2.36699480  T        5       1.49444237      -0.26893824       0.74868981
Fe       7.95705062       9.32965622       2.32155282  T        5      -2.12368922       0.48836169       1.40096844
Fe      11.98736226       9.27189739       2.22697503  T        5      -2.18725729      -2.38729922      -1.31908087
Fe       0.19774496       0.24956439       3.01175639  T        4       0.67989924       0.04168906      -1.17758868
Fe       3.98396359       0.27996319       2.96797049  T        4       0.94048836       0.41606303      -1.40098258
Fe       8.11593829       0.16447027       3.00247855  T        4      -0.21402170      -0.64454920       0.89776131
Fe      14.15856785       3.95602344       3.19368341  T        4      -1.30871133       0.63043839       1.43695476
Fe       6.09276568       3.06852835       3.21207347  T        4      -0.16460982      -0.79802665       2.06883049
Fe      10.03834535       3.38417399       3.15879853  T        4      -0.66901563       1.81440525      -1.39487662
Fe       4.25113790       7.01622006       3.05229438  T        4      -1.34331026      -0.51581637      -0.02161941
Fe       7.99871147       6.79073680       2.95594471  T        4      -1.77615073      -0.72388327      -1.25917923
Fe      11.97404378       6.85719175       3.02105767  T        4       1.41014693      -3.29206706      -0.30478238
Fe       2.01560336       1.62116345       3.95665155  T        3       0.05995404       1.67181292       0.19135666
Fe       6.02764662       0.82398285       3.93779088  T        3       0.25849060      -0.07360159      -1.05892693
Fe      10.24498606       0.74746841       4.03626972  T        3       0.22960246      -1.06054527       0.31249788
Fe       4.17697757       4.70597137       3.95124170  T        3      -1.22180447      -0.13335741       0.38419665
Fe       8.31865597       4.77479982       3.87971272  T        3       2.30755195       1.38328461       0.14598041
Fe      11.97703137       4.75839943       4.01871153  T        3       0.82579632       1.12876119       1.53255888
Fe       6.37570688       8.46240193       4.06371368  T        3       1.92559777      -0.11723965       1.98753264
Fe       9.99223874       8.45053036       3.94071670  T        3       0.74610991       0.17926581       0.08019744
Fe      14.28644813       7.87903884       4.01272618  T        3       1.19258349      -0.28775021       1.43895402
Fe      12.02324777       2.09696782       4.42841915  T        2       0.61590567      -2.26817336      -0.66246738
Fe       4.18144708       2.14402067       4.55167860  T        2      -1.37431886      -1.95020827       1.53454042
Fe       8.21423346       2.29088500       4.56770127  T        2       1.39413041       0.99356619       0.63165443
Fe      14.29678103       5.46920399       4.64984366  T        2       1.46691868      -0.00368126       1.40329933
Fe       6.13086019       5.99925982       4.54062665  T        2      -1.44063359      -1.37291158       1.16057340
Fe       9.99567852       6.08121085       4.53245326  T        2      -0.33182578       0.45780821       0.67390883
Fe      16.25065520       8.97329655       4.64543797  T        2       0.13966129      -0.35864059       0.84499515
Fe       8.26937201       9.99503259       4.49376147  T        2       2.87631670       2.00871718       0.41267401
Fe      12.27049639       9.01288483       4.46253347  T        2       1.47336485       0.57222325      -2.52337686
Fe      17.91550422      10.23525534       5.12795564  T        1       0.61760217      -0.54608203      -0.12017403
Fe      10.56284647      10.39111099       5.17192115  T        1       1.12677480       1.55757735      -0.49837530
Fe      14.27643695       9.95649078       5.22611996  T        1       1.35684148      -0.08023879       2.69632684
Fe       2.06965564       3.35880566       5.36804202  T        1       0.82109527      -0.26489479       3.04534816
Fe       6.25287170       4.11473250       5.40266274  T        1       0.78282649       2.04903760       2.28755455
Fe      10.01624905       3.86685997       5.13275730  T        1       1.44016852      -1.15663302      -0.05982897
Fe       4.06547906       6.79809533       5.32517072  T        1       4.94465662       1.57173821       1.77811013
Fe       8.20830969       7.58516412       5.17053810  T        1       1.77395696      -1.19701144      -0.88447513
Fe      12.46398897       6.81467693       5.28246734  T        1       0.76071536       2.06052940       0.61590159
N        7.56228613       3.24686367       6.34682220  T        0      -0.45004283       0.34928030       0.15928024
N        8.85636361       3.33728216       6.33899884  T        0       0.24777264       0.10777920       0.52584970
74
Lattice="12.176378772032349 0.0 0.0 6.088189386016174 10.545053342681582 0.0 0.0 0.0 20.0" Properties=species:S:1:pos:R:3:move_mask:L:1:tags:I:1:momenta:R:3 pbc="T T F"
Fe      12.17637877       2.34334519       0.00000000  F        8       0.00000000       0.00000000       0.00000000
Fe       4.05879292       2.34334519       0.00000000  F        8       0.00000000       0.00000000       0.00000000
Fe       8.11758585       2.34334519       0.00000000  F        8       0.00000000       0.00000000       0.00000000
Fe      14.20577523       5.85836297       0.00000000  F        8       0.00000000       0.00000000       0.00000000
Fe       6.08818939       5.85836297       0.00000000  F        8       0.00000000       0.00000000       0.00000000
Fe      10.14698231       5.85836297       0.00000000  F        8       0.00000000       0.00000000       0.00000000
Fe      16.23517169       9.37338075       0.00000000  F        8       0.00000000       0.00000000       0.00000000
Fe       8.11758585       9.37338075       0.00000000  F        8       0.00000000       0.00000000       0.00000000
Fe      12.17637877       9.37338075       0.00000000  F        8       0.00000000       0.00000000       0.00000000
Fe       0.00000000       0.00000000       0.82849764  F        7       0.00000000       0.00000000       0.00000000
Fe       4.05879292       0.00000000       0.82849764  F        7       0.00000000       0.00000000       0.00000000
Fe       8.11758585       0.00000000       0.82849764  F        7       0.00000000       0.00000000       0.00000000
Fe       2.02939646       3.51501778       0.82849764  F        7       0.00000000       0.00000000       0.00000000
Fe       6.08818939       3.51501778       0.82849764  F        7       0.00000000       0.00000000       0.00000000
Fe      10.14698231       3.51501778       0.82849764  F        7       0.00000000       0.00000000       0.00000000
Fe       4.05879292       7.03003556       0.82849764  F        7       0.00000000       0.00000000       0.00000000
Fe       8.11758585       7.03003556       0.82849764  F        7       0.00000000       0.00000000       0.00000000
Fe      12.17637877       7.03003556       0.82849764  F        7       0.00000000       0.00000000       0.00000000
Fe       2.02939646       1.17167259       1.65699527  F        6       0.00000000       0.00000000       0.00000000
Fe       6.08818939       1.17167259       1.65699527  F        6       0.00000000       0.00000000       0.00000000
Fe      10.14698231       1.17167259       1.65699527  F        6       0.00000000       0.00000000       0.00000000
Fe       4.05879292       4.68669037       1.65699527  F        6       0.00000000       0.00000000       0.00000000
Fe       8.11758585       4.68669037       1.65699527  F        6       0.00000000       0.00000000       0.00000000
Fe      12.17637877       4.68669037       1.65699527  F        6       0.00000000       0.00000000       0.00000000
Fe       6.08818939       8.20170816       1.65699527  F        6       0.00000000       0.00000000       0.00000000
Fe      10.14698231       8.20170816       1.65699527  F        6       0.00000000       0.00000000       0.00000000
Fe      14.20577523       8.20170816       1.65699527  F        6       0.00000000       0.00000000       0.00000000
Fe      12.37630632       2.51108323       2.18064515  T        5       0.65566624       0.71641059      -0.21662310
Fe       3.92202157       2.54794095       2.27362776  T        5      -0.04389067       1.39066570       1.11222242
Fe       8.14964185       2.36455813       2.19478653  T        5       0.34329714      -0.39172302       1.19503248
Fe      14.34899553       5.95440434       2.10280013  T        5       2.30541949      -0.44459097      -1.78900367
Fe       6.04375441       5.50949183       2.28304995  T        5      -0.65301422      -1.66115651       0.86451679
Fe      10.18349856       5.36782938       2.18933109  T        5       0.73489093      -2.36994434       0.06248287
Fe      16.37514906       9.41794307       2.36765645  T        5       1.50313500      -0.27724028       0.74410177
Fe       7.95517317       9.33008543       2.32279542  T        5      -2.11213382       0.47995402       1.40266231
Fe      11.98542058       9.26977676       2.22580153  T        5      -2.19370408      -2.39753095      -1.32878231
Fe       0.19834955       0.24959672       3.01070587  T        4       0.68418819       0.03112731      -1.19266887
Fe       3.98479082       0.28032642       2.96673076  T        4       0.92577883       0.40336192      -1.39607240
Fe       8.11574391       0.16388357       3.00329234  T        4      -0.22465634      -0.67965238       0.93871442
Fe      14.15739064       3.95656292       3.19494110  T        4      -1.34787140       0.58651676       1.40065955
Fe       6.09262137       3.06783080       3.21392980  T        4      -0.16097394      -0.77561551       2.12003051
Fe      10.03776571       3.38574449       3.15752185  T        4      -0.63856121       1.72811731      -1.48603769
Fe       4.24994526       7.01576239       3.05228117  T        4      -1.34770480      -0.51683437      -0.00807630
Fe       7.99713361       6.79011219       2.95483349  T        4      -1.78410582      -0.68503564      -1.24799481
Fe      11.97530069       6.85426184       3.02079705  T        4       1.42600104      -3.31878013      -0.28307785
Fe       2.01566297       1.62264883       3.95681639  T        3       0.07470288       1.67971952       0.18046621
Fe       6.02789664       0.82392021       3.93684652  T        3       0.30614688      -0.06759398      -1.07196170
Fe      10.24516833       0.74653227       4.03654120  T        3       0.18119896      -1.05158539       0.29996860
Fe       4.17590210       4.70584428       3.95159031  T        3      -1.20457611      -0.15364225       0.40255595
Fe       8.32068655       4.77602684       3.87985302  T        3       2.27368403       1.38518645       0.17097305
Fe      11.97777561       4.75940337       4.02008378  T        3       0.85372477       1.13639361       1.56405829
Fe       6.37743449       8.46228080       4.06547724  T        3       1.97283371      -0.15636236       1.99169445
Fe       9.99290010       8.45068355       3.94078486  T        3       0.74617781       0.16630638       0.07354413
Fe      14.28750632       7.87877758       4.01400515  T        3       1.19499844      -0.30188377       1.44688360
Fe      12.02379259       2.09496273       4.42783255  T        2       0.61327779      -2.25568717      -0.66094773
Fe       4.18022102       2.14228812       4.55304992  T        2      -1.39224958      -1.95897501       1.55986119
Fe       8.21546992       2.29176712       4.56826739  T        2       1.39574794       0.99690373       0.64600850
Fe      14.29808500       5.46923009       4.65111719  T        2       1.47525312       0.06299626       1.47075446
Fe       6.12957472       5.99805099       4.54165676  T        2      -1.45992787      -1.35422112       1.16361554
Fe       9.99538816       6.08163946       4.53304470  T        2      -0.32314678       0.50971081       0.66045433
Fe      16.25076712       8.97296859       4.64619214  T        2       0.11267882      -0.38151094       0.85678944
Fe       8.27193955       9.99681998       4.49413168  T        2       2.91719512       2.02432840       0.42275346
Fe      12.27181668       9.01339171       4.46028187  T        2       1.50598343       0.57147665      -2.55726219
Fe      17.91607015      10.23477821       5.12787265  T        1       0.65973435      -0.53029367      -0.06672826
Fe      10.56384742      10.39249535       5.17148008  T        1       1.13173366       1.56598799      -0.49678140
Fe      14.27764922       9.95641974       5.22850964  T        1       1.37866812      -0.08009173       2.69549437
Fe       2.07039009       3.35856911       5.37075883  T        1       0.83621289      -0.26876874       3.08469358
Fe       6.25357577       4.11654314       5.40469368  T        1       0.80583622       2.03601488       2.29494528
Fe      10.01755308       3.86583497       5.13274641  T        1       1.50231179      -1.15632396       0.03624478
Fe       4.06989219       6.79949466       5.32674989  T        1       5.01350340       1.58573549       1.78504858
Fe       8.20989438       7.58409537       5.16973645  T        1       1.80184523      -1.21459858      -0.92458210
Fe      12.46467393       6.81651607       5.28300251  T        1       0.78499379       2.08943013       0.59138133
N        7.56081329       3.24813219       6.34737574  T        0      -0.38134809       0.36879358       0.15394583
N        8.85706998       3.33762207       6.34087574  T        0       0.15027584       0.08441310       0.53589619
74
Lattice="12.176378772032349 0.0 0.0 6.088189386016174 10.545053342681582 0.0 0.0 0.0 20.0" Properties=species:S:1:pos:R:3:move_mask:L:1:tags:I:1:momenta:R:3 pbc="T T F"
Fe      12.17637877       2.34334519       0.00000000  F        8       0.00000000       0.00000000       0.00000000
Fe       4.05879292       2.34334519       0.00000000  F        8       0.00000000       0.00000000       0.00000000
Fe       8.11758585       2.34334519       0.00000000  F        8       0.00000000       0.00000000       0.00000000
Fe      14.20577523       5.85836297       0.00000000  F        8       0.00000000       0.00000000       0.00000000
Fe       6.08818939       5.85836297       0.00000000  F        8       0.00000000       0.00000000       0.00000000
Fe      10.14698231       5.85836297       0.00000000  F        8       0.00000000       0.00000000       0.00000000
Fe      16.23517169       9.37338075       0.00000000  F        8       0.00000000       0.00000000       0.00000000
Fe       8.11758585       9.37338075       0.00000000  F        8       0.00000000       0.00000000       0.00000000
Fe      12.17637877       9.37338075       0.00000000  F        8       0.00000000       0.00000000       0.00000000
Fe       0.00000000       0.00000000       0.82849764  F        7       0.00000000       0.00000000       0.00000000
Fe       4.05879292       0.00000000       0.82849764  F        7       0.00000000       0.00000000       0.00000000
Fe       8.11758585       0.00000000       0.82849764  F        7       0.00000000       0.00000000       0.00000000
Fe       2.02939646       3.51501778       0.82849764  F        7       0.00000000       0.00000000       0.00000000
Fe       6.08818939       3.51501778       0.82849764  F        7       0.00000000       0.00000000       0.00000000
Fe      10.14698231       3.51501778       0.82849764  F        7       0.00000000       0.00000000       0.00000000
Fe       4.05879292       7.03003556       0.82849764  F        7       0.00000000       0.00000000       0.00000000
Fe       8.11758585       7.03003556       0.82849764  F        7       0.00000000       0.00000000       0.00000000
Fe      12.17637877       7.03003556       0.82849764  F        7       0.00000000       0.00000000       0.00000000
Fe       2.02939646       1.17167259       1.65699527  F        6       0.00000000       0.00000000       0.00000000
Fe       6.08818939       1.17167259       1.65699527  F        6       0.00000000       0.00000000       0.00000000
Fe      10.14698231       1.17167259       1.65699527  F        6       0.00000000       0.00000000       0.00000000
Fe       4.05879292       4.68669037       1.65699527  F        6       0.00000000       0.00000000       0.00000000
Fe       8.11758585       4.68669037       1.65699527  F        6       0.00000000       0.00000000       0.00000000
Fe      12.17637877       4.68669037       1.65699527  F        6       0.00000000       0.00000000       0.00000000
Fe       6.08818939       8.20170816       1.65699527  F        6       0.00000000       0.00000000       0.00000000
Fe      10.14698231       8.20170816       1.65699527  F        6       0.00000000       0.00000000       0.00000000
Fe      14.20577523       8.20170816       1.65699527  F        6       0.00000000       0.00000000       0.00000000
Fe      12.37688024       2.51172175       2.18045770  T        5       0.64439266       0.73012134      -0.20797898
Fe       3.92197918       2.54917624       2.27461014  T        5      -0.05216890       1.40777662       1.11329628
Fe       8.14994100       2.36420917       2.19584051  T        5       0.33432294      -0.39887801       1.19262873
Fe      14.35102881       5.95402167       2.10122224  T        5       2.30065696      -0.42226130      -1.78538961
Fe       6.04318187       5.50802393       2.28381488  T        5      -0.64388948      -1.66423956       0.86837969
Fe      10.18414826       5.36577444       2.18940166  T        5       0.73693034      -2.28440262       0.09752084
Fe      16.37647456       9.41769558       2.36830863  T        5       1.49963021      -0.28348478       0.73324333
Fe       7.95332134       9.33050365       2.32402943  T        5      -2.08269618       0.46739606       1.39276593
Fe      11.98348895       9.26766419       2.22462887  T        5      -2.18208819      -2.38820336      -1.32781327
Fe       0.19895299       0.24961935       3.00965056  T        4       0.68274866       0.02003303      -1.19788054
Fe       3.98559819       0.28067539       2.96550551  T        4       0.90306743       0.38711594      -1.37945422
Fe       8.11554162       0.16327025       3.00413599  T        4      -0.23367085      -0.71003066       0.97261890
Fe      14.15618798       3.95705902       3.19615649  T        4      -1.37687002       0.53727792       1.35270223
Fe       6.09248146       3.06715889       3.21581670  T        4      -0.15596597      -0.74637340       2.15472904
Fe      10.03721788       3.38722524       3.15617471  T        4      -0.60234591       1.62566544      -1.56562784
Fe       4.24875833       7.01530751       3.05228012  T        4      -1.34117356      -0.51363974       0.00577414
Fe       7.99556137       6.78952727       2.95374119  T        4      -1.77770320      -0.63977487      -1.22643410
Fe      11.97656160       6.85133195       3.02055785  T        4       1.43054754      -3.31843200      -0.25867838
Fe       2.01573526       1.62412925       3.95697019  T        3       0.08916057       1.67402751       0.16785226
Fe       6.02818717       0.82386351       3.93589817  T        3       0.35234591      -0.06075144      -1.07645593
Fe      10.24530599       0.74561168       4.03679936  T        3       0.13042825      -1.03386804       0.28485764
Fe       4.17485071       4.70570009       3.95195248  T        3      -1.17704537      -0.17316593       0.41799878
Fe       8.32267049       4.77724557       3.88001460  T        3       2.22044740       1.37562592       0.19535996
Fe      11.97853875       4.76040590       4.02147310  T        3       0.87521299       1.13461087       1.58353224
Fe       6.37919021       8.46212585       4.06723031  T        3       2.00477061      -0.19477571       1.97974561
Fe       9.99355623       8.45082400       3.94084655  T        3       0.74025152       0.15181931       0.06619271
Fe      14.28855808       7.87850582       4.01528087  T        3       1.18760609      -0.31384647       1.44313107
Fe      12.02433061       2.09298506       4.42725215  T        2       0.60546671      -2.22428180      -0.65375706
Fe       4.17898886       2.14056181       4.55443277  T        2      -1.39916146      -1.95174056       1.57298722
Fe       8.21669786       2.29264519       4.56884190  T        2       1.38602928       0.99234848       0.65571004
Fe      14.29938581       5.46931522       4.65244049  T        2       1.47155825       0.13002390       1.52729605
Fe       6.12828247       5.99686874       4.54268119  T        2      -1.46751900      -1.32369485       1.15702170
Fe       9.99510795       6.08211082       4.53361939  T        2      -0.31150189       0.55828098       0.64140618
Fe      16.25085415       8.97262294       4.64695076  T        2       0.08441418      -0.40156612       0.86184450
Fe       8.27452275       9.99860684       4.49450791  T        2       2.93490317       2.02366216       0.42961998
Fe      12.27315542       9.01389386       4.45801825  T        2       1.52697545       0.56612144      -2.57087514
Fe      17.91666907      10.23431902       5.12783782  T        1       0.69726928      -0.50983972      -0.01206395
Fe      10.56484472      10.39387597       5.17104401  T        1       1.12754084       1.56160707      -0.49104525
Fe      14.27887119       9.95634937       5.23087926  T        1       1.38972769      -0.07937162       2.67252662
Fe       2.07113210       3.35833111       5.37348851  T        1       0.84483260      -0.27032050       3.09898206
Fe       6.25429452       4.11832739       5.40671480  T        1       0.82232563       2.00574194       2.28364987
Fe      10.01890160       3.86481830       5.13282129  T        1       1.55252958      -1.14705403       0.13394381
Fe       4.07433114       6.80089518       5.32832249  T        1       5.04286905       1.58704498       1.77753730
Fe       8.21149112       7.58301957       5.16890562  T        1       1.81549513      -1.22258932      -0.95769291
Fe      12.46537499       6.81836613       5.28351152  T        1       0.80331791       2.10185918       0.56156881
N        7.55960162       3.24945980       6.34790590  T        0      -0.30561699       0.38563841       0.14733673
N        8.85742148       3.33787639       6.34277130  T        0       0.04851196       0.06005365       0.54067441
74
Lattice="12.176378772032349 0.0 0.0 6.088189386016174 10.545053342681582 0.0 0.0 0.0 20.0" Properties=species:S:1:pos:R:3:move_mask:L:1:tags:I:1:momenta:R:3 pbc="T T F"
Fe      12.17637877       2.34334519       0.00000000  F        8       0.00000000       0.00000000       0.00000000
Fe       4.05879292       2.34334519       0.00000000  F        8       0.00000000       0.00000000       0.00000000
Fe       8.11758585       2.34334519       0.00000000  F        8       0.00000000       0.00000000       0.00000000
Fe      14.20577523       5.85836297       0.00000000  F        8       0.00000000       0.00000000       0.00000000
Fe       6.08818939       5.85836297       0.00000000  F        8       0.00000000       0.00000000       0.00000000
Fe      10.14698231       5.85836297       0.00000000  F        8       0.00000000       0.00000000       0.00000000
Fe      16.23517169       9.37338075       0.00000000  F        8       0.00000000       0.00000000       0.00000000
Fe       8.11758585       9.37338075       0.00000000  F        8       0.00000000       0.00000000       0.00000000
Fe      12.17637877       9.37338075       0.00000000  F        8       0.00000000       0.00000000       0.00000000
Fe       0.00000000       0.00000000       0.82849764  F        7       0.00000000       0.00000000       0.00000000
Fe       4.05879292       0.00000000       0.82849764  F        7       0.00000000       0.00000000       0.00000000
Fe       8.11758585       0.00000000       0.82849764  F        7       0.00000000       0.00000000       0.00000000
Fe       2.02939646       3.51501778       0.82849764  F        7       0.00000000       0.00000000       0.00000000
Fe       6.08818939       3.51501778       0.82849764  F        7       0.00000000       0.00000000       0.00000000
Fe      10.14698231       3.51501778       0.82849764  F        7       0.00000000       0.00000000       0.00000000
Fe       4.05879292       7.03003556       0.82849764  F        7       0.00000000       0.00000000       0.00000000
Fe       8.11758585       7.03003556       0.82849764  F        7       0.00000000       0.00000000       0.00000000
Fe      12.17637877       7.03003556       0.82849764  F        7       0.00000000       0.00000000       0.00000000
Fe       2.02939646       1.17167259       1.65699527  F        6       0.00000000       0.00000000       0.00000000
Fe       6.08818939       1.17167259       1.65699527  F        6       0.00000000       0.00000000       0.00000000
Fe      10.14698231       1.17167259       1.65699527  F        6       0.00000000       0.00000000       0.00000000
Fe       4.05879292       4.68669037       1.65699527  F        6       0.00000000       0.00000000       0.00000000
Fe       8.11758585       4.68669037       1.65699527  F        6       0.00000000       0.00000000       0.00000000
Fe      12.17637877       4.68669037       1.65699527  F        6       0.00000000       0.00000000       0.00000000
Fe       6.08818939       8.20170816       1.65699527  F        6       0.00000000       0.00000000       0.00000000
Fe      10.14698231       8.20170816       1.65699527  F        6       0.00000000       0.00000000       0.00000000
Fe      14.20577523       8.20170816       1.65699527  F        6       0.00000000       0.00000000       0.00000000
Fe      12.37743962       2.51236730       2.18027937  T        5       0.62777969       0.73802273      -0.19759636
Fe       3.92192982       2.55041683       2.27558573  T        5      -0.06008092       1.41371847       1.10557410
Fe       8.15022983       2.36385662       2.19688403  T        5       0.32252342      -0.40298031       1.18067008
Fe      14.35304173       5.95366170       2.09966014  T        5       2.27729692      -0.39645539      -1.76717658
Fe       6.04262199       5.50656491       2.28457719  T        5      -0.62940370      -1.65407247       0.86538519
Fe      10.18479461       5.36381176       2.18950260  T        5       0.73304271      -2.17882977       0.13204121
Fe      16.37778649       9.41744450       2.36894602  T        5       1.48411500      -0.28759773       0.71635339
Fe       7.95151030       9.33090745       2.32524490  T        5      -2.03602081       0.45092989       1.37155782
Fe      11.98158291       9.26557659       2.22346629  T        5      -2.15277754      -2.35967086      -1.31630566
Fe       0.19955031       0.24963195       3.00859914  T        4       0.67565365       0.00858640      -1.19322164
Fe       3.98637906       0.28100725       2.96430470  T        4       0.87279993       0.36762581      -1.35151150
Fe       8.11533295       0.16263483       3.00500290  T        4      -0.24094103      -0.73525999       0.99900668
Fe      14.15496912       3.95750783       3.19732012  T        4      -1.39535255       0.48360007       1.29401404
Fe       6.09234707       3.06651814       3.21771935  T        4      -0.14968289      -0.71083757       2.17255488
Fe      10.03670636       3.38860358       3.15476836  T        4      -0.56101185       1.50886845      -1.63239791
Fe       4.24758652       7.01485905       3.05229132  T        4      -1.32393671      -0.50632854       0.01970659
Fe       7.99400714       6.78898701       2.95267654  T        4      -1.75720372      -0.58889442      -1.19495561
Fe      11.97781662       6.84842566       3.02034210  T        4       1.42383965      -3.29129782      -0.23200458
Fe       2.01581978       1.62559296       3.95711160  T        3       0.10310023       1.65497412       0.15373293
Fe       6.02851632       0.82381337       3.93495334  T        3       0.39636874      -0.05318071      -1.07242300
Fe      10.24539771       0.74471399       4.03704218  T        3       0.07814030      -1.00777517       0.26744869
Fe       4.17383201       4.70553973       3.95232545  T        3      -1.13976441      -0.19163464       0.43031650
Fe       8.32459169       4.77844617       3.88019660  T        3       2.14892466       1.35487079       0.21875648
Fe      11.97931487       4.76139883       4.02286877  T        3       0.88997579       1.12352303       1.59081597
Fe       6.38096031       8.46193824       4.06895905  T        3       2.02105635      -0.23185489       1.95205918
Fe       9.99420199       8.45095056       3.94090127  T        3       0.72849830       0.13605691       0.05826522
Fe      14.28959498       7.87822561       4.01654321  T        3       1.17062899      -0.32347457       1.42788205
Fe      12.02485743       2.09105085       4.42668278  T        2       0.59264499      -2.17466100      -0.64106175
Fe       4.17776029       2.13885557       4.55581636  T        2      -1.39506243      -1.92878797       1.57384756
Fe       8.21790755       2.29351238       4.56942059  T        2       1.36526997       0.98002378       0.66056438
Fe      14.30067305       5.46945876       4.65380327  T        2       1.45602412       0.19629267       1.57211759
Fe       6.12699377       5.99572298       4.54369164  T        2      -1.46340348      -1.28193643       1.14099266
Fe       9.99484032       6.08262132       4.53417275  T        2      -0.29710475       0.60275685       0.61712667
Fe      16.25091558       8.97226235       4.64770788  T        2       0.05535164      -0.41850190       0.86015573
Fe       8.27710121      10.00037902       4.49488726  T        2       2.92940834       2.00690415       0.43320134
Fe      12.27450220       9.01438735       4.45576043  T        2       1.53613639       0.55629686      -2.56422209
Fe      17.91729645      10.23388155       5.12785144  T        1       0.72964701      -0.48510025       0.04290380
Fe      10.56583045      10.39524177       5.17061647  T        1       1.11436728       1.54463823      -0.48130324
Fe      14.28009335       9.95628015       5.23320986  T        1       1.38996772      -0.07809875       2.62802497
Fe       2.07187591       3.35809369       5.37620905  T        1       0.84689086      -0.26953671       3.08822595
Fe       6.25502201       4.12007067       5.40870997  T        1       0.83203404       1.95889970       2.25401961
Fe      10.02028354       3.86381763       5.13298198  T        1       1.59013977      -1.12909187       0.23163156
Fe       4.07876116       6.80228582       5.32987607  T        1       5.03272049       1.57578401       1.75585835
Fe       8.21308732       7.58194518       5.16805214  T        1       1.81484280      -1.22096255      -0.98334643
Fe      12.46608674       6.82021264       5.28399015  T        1       0.81546244       2.09779997       0.52699904
N        7.55867034       3.25083624       6.34840884  T        0      -0.22478757       0.39952658       0.13968461
N        8.85741014       3.33804316       6.34466688  T        0      -0.05512107       0.03517696       0.54013945
74
Lattice="12.176378772032349 0.0 0.0 6.088189386016174 10.545053342681582 0.0 0.0 0.0 20.0" Properties=species:S:1:pos:R:3:move_mask:L:1:tags:I:1:momenta:R:3 pbc="T T F"
Fe      12.17637877       2.34334519       0.00000000  F        8       0.00000000       0.00000000       0.00000000
Fe       4.05879292       2.34334519       0.00000000  F        8       0.00000000       0.00000000       0.00000000
Fe       8.11758585       2.34334519       0.00000000  F        8       0.00000000       0.00000000       0.00000000
Fe      14.20577523       5.85836297       0.00000000  F        8       0.00000000       0.00000000       0.00000000
Fe       6.08818939       5.85836297       0.00000000  F        8       0.00000000       0.00000000       0.00000000
Fe      10.14698231       5.85836297       0.00000000  F        8       0.00000000       0.00000000       0.00000000
Fe      16.23517169       9.37338075       0.00000000  F        8       0.00000000       0.00000000       0.00000000
Fe       8.11758585       9.37338075       0.00000000  F        8       0.00000000       0.00000000       0.00000000
Fe      12.17637877       9.37338075       0.00000000  F        8       0.00000000       0.00000000       0.00000000
Fe       0.00000000       0.00000000       0.82849764  F        7       0.00000000       0.00000000       0.00000000
Fe       4.05879292       0.00000000       0.82849764  F        7       0.00000000       0.00000000       0.00000000
Fe       8.11758585       0.00000000       0.82849764  F        7       0.00000000       0.00000000       0.00000000
Fe       2.02939646       3.51501778       0.82849764  F        7       0.00000000       0.00000000       0.00000000
Fe       6.08818939       3.51501778       0.82849764  F        7       0.00000000       0.00000000       0.00000000
Fe      10.14698231       3.51501778       0.82849764  F        7       0.00000000       0.00000000       0.00000000
Fe       4.05879292       7.03003556       0.82849764  F        7       0.00000000       0.00000000       0.00000000
Fe       8.11758585       7.03003556       0.82849764  F        7       0.00000000       0.00000000       0.00000000
Fe      12.17637877       7.03003556       0.82849764  F        7       0.00000000       0.00000000       0.00000000
Fe       2.02939646       1.17167259       1.65699527  F        6       0.00000000       0.00000000       0.00000000
Fe       6.08818939       1.17167259       1.65699527  F        6       0.00000000       0.00000000       0.00000000
Fe      10.14698231       1.17167259       1.65699527  F        6       0.00000000       0.00000000       0.00000000
Fe       4.05879292       4.68669037       1.65699527  F        6       0.00000000       0.00000000       0.00000000
Fe       8.11758585       4.68669037       1.65699527  F        6       0.00000000       0.00000000       0.00000000
Fe      12.17637877       4.68669037       1.65699527  F        6       0.00000000       0.00000000       0.00000000
Fe       6.08818939       8.20170816       1.65699527  F        6       0.00000000       0.00000000       0.00000000
Fe      10.14698231       8.20170816       1.65699527  F        6       0.00000000       0.00000000       0.00000000
Fe      14.20577523       8.20170816       1.65699527  F        6       0.00000000       0.00000000       0.00000000
Fe      12.37798377       2.51301907       2.18011036  T        5       0.61036589       0.74500846      -0.18698747
Fe       3.92187357       2.55166131       2.27655355  T        5      -0.06790647       1.41801934       1.09671355
Fe       8.15050795       2.36350080       2.19791593  T        5       0.31028287      -0.40671047       1.16739148
Fe      14.35503190       5.95332477       2.09811584  T        5       2.25122180      -0.37029370      -1.74668006
Fe       6.04207549       5.50511636       2.28533608  T        5      -0.61407464      -1.64208316       0.86147506
Fe      10.18543683       5.36194443       2.18963376  T        5       0.72827642      -2.06976285       0.16638971
Fe      16.37908338       9.41719004       2.36956785  T        5       1.46694885      -0.29147400       0.69858305
Fe       7.94974236       9.33129631       2.32644039  T        5      -1.98671843       0.43389038       1.34872038
Fe      11.97970473       9.26351630       2.22231503  T        5      -2.12090130      -2.32846226      -1.30341128
Fe       0.20014068       0.24963444       3.00755308  T        4       0.66761278      -0.00297055      -1.18687837
Fe       3.98713243       0.28132161       2.96312979  T        4       0.84140946       0.34771244      -1.32189614
Fe       8.11511809       0.16197779       3.00589207  T        4      -0.24799227      -0.75994862       1.02425810
Fe      14.15373519       3.95790911       3.19843114  T        4      -1.41252077       0.42967009       1.23438313
Fe       6.09221834       3.06590936       3.21963568  T        4      -0.14324748      -0.67442038       2.18802688
Fe      10.03623171       3.38987757       3.15330524  T        4      -0.51904622       1.38990448      -1.69631439
Fe       4.24643107       7.01441748       3.05231476  T        4      -1.30528708      -0.49846702       0.03363049
Fe       7.99247250       6.78849210       2.95164067  T        4      -1.73490813      -0.53722846      -1.16220696
Fe      11.97906446       6.84554642       3.02015003  T        4       1.41568605      -3.26021981      -0.20506775
Fe       2.01591649       1.62703841       3.95724042  T        3       0.11699930       1.63413771       0.13938175
Fe       6.02888392       0.82377002       3.93401304  T        3       0.44020505      -0.04535848      -1.06722658
Fe      10.24544335       0.74384018       4.03726949  T        3       0.02572292      -0.98059567       0.24985550
Fe       4.17284720       4.70536323       3.95270890  T        3      -1.10110121      -0.21006380       0.44224723
Fe       8.32644793       4.77962720       3.88039914  T        3       2.07493254       1.33247911       0.24226536
Fe      11.98010317       4.76238086       4.02426949  T        3       0.90382512       1.11094610       1.59663958
Fe       6.38274288       8.46171829       4.07066170  T        3       2.03518940      -0.26856634       1.92238265
Fe       9.99483680       8.45106316       3.94094897  T        3       0.71607472       0.12020385       0.05028348
Fe      14.29061584       7.87793721       4.01779084  T        3       1.15231521      -0.33281937       1.41110743
Fe      12.02537238       2.08916238       4.42612527  T        2       0.57905034      -2.12244000      -0.62742890
Fe       4.17653658       2.13717134       4.55719932  T        2      -1.38951981      -1.90362293       1.57315316
Fe       8.21909777       2.29436790       4.57000306  T        2       1.34312058       0.96676357       0.66489297
Fe      14.30194525       5.46966027       4.65520401  T        2       1.43882298       0.26204549       1.61518692
Fe       6.12571006       5.99461532       4.54468686  T        2      -1.45760948      -1.23834888       1.12355371
Fe       9.99458569       6.08317036       4.53470420  T        2      -0.28221022       0.64650816       0.59220739
Fe      16.25095145       8.97188728       4.64846276  T        2       0.02635275      -0.43488459       0.85761107
Fe       8.27967215      10.00213463       4.49526940  T        2       2.92075384       1.98799272       0.43639251
Fe      12.27585569       9.01487173       4.45351078  T        2       1.54378475       0.54595287      -2.55488072
Fe      17.91795167      10.23346630       5.12791324  T        1       0.76130557      -0.45978159       0.09755991
Fe      10.56680358      10.39659118       5.17019796  T        1       1.10002095       1.52587461      -0.47099206
Fe      14.28131451       9.95621209       5.23549887  T        1       1.38885612      -0.07682534       2.58060418
Fe       2.07262079       3.35785731       5.37891708  T        1       0.84812601      -0.26825651       3.07361660
Fe       6.25575709       4.12177080       5.41067698  T        1       0.84041368       1.90960496       2.22185555
Fe      10.02169679       3.86283355       5.13322846  T        1       1.62538081      -1.11042723       0.32924741
Fe       4.08317780       6.80366514       5.33140899  T        1       5.01750377       1.56286750       1.73232492
Fe       8.21468130       7.58087333       5.16717706  T        1       1.81225991      -1.21806336      -1.00782271
Fe      12.46680844       6.82205371       5.28443789  T        1       0.82678816       2.09160862       0.49182327
N        7.55802623       3.25225982       6.34888486  T        0      -0.14239671       0.41291186       0.13217169
N        8.85703517       3.33812292       6.34655678  T        0      -0.15858965       0.01049226       0.53798536
74
Lattice="12.176378772032349 0.0 0.0 6.088189386016174 10.545053342681582 0.0 0.0 0.0 20.0" Properties=species:S:1:pos:R:3:move_mask:L:1:tags:I:1:momenta:R:3 pbc="T T F"
Fe      12.17637877       2.34334519       0.00000000  F        8       0.00000000       0.00000000       0.00000000
Fe       4.05879292       2.34334519       0.00000000  F        8       0.00000000       0.00000000       0.00000000
Fe       8.11758585       2.34334519       0.00000000  F        8       0.00000000       0.00000000       0.00000000
Fe      14.20577523       5.85836297       0.00000000  F        8       0.00000000       0.00000000       0.00000000
Fe       6.08818939       5.85836297       0.00000000  F        8       0.00000000       0.00000000       0.00000000
Fe      10.14698231       5.85836297       0.00000000  F        8       0.00000000       0.00000000       0.00000000
Fe      16.23517169       9.37338075       0.00000000  F        8       0.00000000       0.00000000       0.00000000
Fe       8.11758585       9.37338075       0.00000000  F        8       0.00000000       0.00000000       0.00000000
Fe      12.17637877       9.37338075       0.00000000  F        8       0.00000000       0.00000000       0.00000000
Fe       0.00000000       0.00000000       0.82849764  F        7       0.00000000       0.00000000       0.00000000
Fe       4.05879292       0.00000000       0.82849764  F        7       0.00000000       0.00000000       0.00000000
Fe       8.11758585       0.00000000       0.82849764  F        7       0.00000000       0.00000000       0.00000000
Fe       2.02939646       3.51501778       0.82849764  F        7       0.00000000       0.00000000       0.00000000
Fe       6.08818939       3.51501778       0.82849764  F        7       0.00000000       0.00000000       0.00000000
Fe      10.14698231       3.51501778       0.82849764  F        7       0.00000000       0.00000000       0.00000000
Fe       4.05879292       7.03003556       0.82849764  F        7       0.00000000       0.00000000       0.00000000
Fe       8.11758585       7.03003556       0.82849764  F        7       0.00000000       0.00000000       0.00000000
Fe      12.17637877       7.03003556       0.82849764  F        7       0.00000000       0.00000000       0.00000000
Fe       2.02939646       1.17167259       1.65699527  F        6       0.00000000       0.00000000       0.00000000
Fe       6.08818939       1.17167259       1.65699527  F        6       0.00000000       0.00000000       0.00000000
Fe      10.14698231       1.17167259       1.65699527  F        6       0.00000000       0.00000000       0.00000000
Fe       4.05879292       4.68669037       1.65699527  F        6       0.00000000       0.00000000       0.00000000
Fe       8.11758585       4.68669037       1.65699527  F        6       0.00000000       0.00000000       0.00000000
Fe      12.17637877       4.68669037       1.65699527  F        6       0.00000000       0.00000000       0.00000000
Fe       6.08818939       8.20170816       1.65699527  F        6       0.00000000       0.00000000       0.00000000
Fe      10.14698231       8.20170816       1.65699527  F        6       0.00000000       0.00000000       0.00000000
Fe      14.20577523       8.20170816       1.65699527  F        6       0.00000000       0.00000000       0.00000000
Fe      12.37852152       2.51368786       2.17994793  T        5       0.60301587       0.76427043      -0.17949296
Fe       3.92180945       2.55293033       2.27752970  T        5      -0.07682857       1.44581517       1.10619323
Fe       8.15077982       2.36313571       2.19895328  T        5       0.30313222      -0.41727549       1.17353285
Fe      14.35703212       5.95300534       2.09656407  T        5       2.26242215      -0.35041267      -1.75491790
Fe       6.04153351       5.50365424       2.28610419  T        5      -0.60882956      -1.65742538       0.87193835
Fe      10.18608551       5.36014302       2.18979753  T        5       0.73555329      -1.99418210       0.20343601
Fe      16.38038672       9.41692785       2.37018429  T        5       1.47419522      -0.30027660       0.69236801
Fe       7.94798875       9.33167654       2.32763556  T        5      -1.97014194       0.42401420       1.34823158
Fe      11.97782352       9.26144929       2.22115594  T        5      -2.12415155      -2.33595303      -1.31228145
Fe       0.20073368       0.24962669       3.00649534  T        4       0.67048131      -0.01466302      -1.19990353
Fe       3.98787049       0.28162358       2.96196158  T        4       0.82389951       0.33359609      -1.31412533
Fe       8.11489337       0.16128779       3.00681844  T        4      -0.25920737      -0.79752105       1.06647817
Fe      14.15246536       3.95826944       3.19950811  T        4      -1.45338156       0.38327052       1.19587989
Fe       6.09209316       3.06532271       3.22159772  T        4      -0.13921866      -0.64917267       2.23992478
Fe      10.03578632       3.39106724       3.15176156  T        4      -0.48576074       1.29374225      -1.78723233
Fe       4.24527284       7.01397549       3.05235093  T        4      -1.30842106      -0.49891607       0.04810739
Fe       7.99093194       6.78803475       2.95061648  T        4      -1.74164634      -0.49443812      -1.14888498
Fe      11.98032598       6.84264678       3.01997861  T        4       1.43122019      -3.28309019      -0.18157379
Fe       2.01602716       1.62848954       3.95735866  T        3       0.13289854       1.64055493       0.12730522
Fe       6.02929660       0.82373297       3.93306163  T        3       0.49155320      -0.03810115      -1.07980297
Fe      10.24544331       0.74297584       4.03748506  T        3      -0.02622349      -0.96979453       0.23656489
Fe       4.17188026       4.70516738       3.95310936  T        3      -1.08068791      -0.23214005       0.46161140
Fe       8.32826959       4.78080805       3.88062603  T        3       2.03548638       1.33213579       0.27011375
Fe      11.98091693       4.76336803       4.02569888  T        3       0.93274600       1.11660152       1.62932145
Fe       6.38456777       8.46146220       4.07236656  T        3       2.08322730      -0.30956700       1.92489261
Fe       9.99547127       8.45116363       3.94099040  T        3       0.71571840       0.10643448       0.04315535
Fe      14.29163751       7.87763568       4.01904446  T        3       1.15315013      -0.34776474       1.41787763
Fe      12.02588382       2.08728873       4.42557063  T        2       0.57498187      -2.10539867      -0.62401930
Fe       4.17529731       2.13548131       4.55860484  T        2      -1.40719283      -1.91007124       1.59881362
Fe       8.22028829       2.29522601       4.57059915  T        2       1.34347677       0.96970852       0.68037779
Fe      14.30322343       5.46992325       4.65666626  T        2       1.44552317       0.33174128       1.68502793
Fe       6.12441009       5.99352796       4.54568318  T        2      -1.47599945      -1.21500532       1.12467228
Fe       9.99434009       6.08376728       4.53522246  T        2      -0.27185970       0.70087422       0.57721047
Fe      16.25096229       8.97149149       4.64922803  T        2      -0.00202728      -0.45837528       0.86943051
Fe       8.28227837      10.00390282       4.49566079  T        2       2.96077029       2.00223639       0.44692869
Fe      12.27723862       9.01535508       4.45123179  T        2       1.57728754       0.54480172      -2.58819635
Fe      17.91864590      10.23306657       5.12802437  T        1       0.80565876      -0.44210590       0.15347873
Fe      10.56778028      10.39794645       5.16978161  T        1       1.10405371       1.53242599      -0.46849398
Fe      14.28255516       9.95614398       5.23778409  T        1       1.41103616      -0.07691811       2.57615273
Fe       2.07337925       3.35761820       5.38165717  T        1       0.86358247      -0.27123188       3.10969166
Fe       6.25651168       4.12345553       5.41264831  T        1       0.86229368       1.89187115       2.22662048
Fe      10.02316459       3.86184935       5.13356559  T        1       1.68701321      -1.11081031       0.43232150
Fe       4.08765490       6.80505607       5.33294669  T        1       5.08625770       1.57605063       1.73772739
Fe       8.21629963       7.57978611       5.16626573  T        1       1.83989880      -1.23550736      -1.04893231
Fe      12.46755225       6.82392010       5.28486193  T        1       0.85193436       2.12040328       0.46485590
N        7.55766402       3.25375430       6.34934290  T        0      -0.06188075       0.43304368       0.12726562
N        8.85628939       3.33811731       6.34846883  T        0      -0.26371308      -0.01368776       0.54377522
74
Lattice="12.176378772032349 0.0 0.0 6.088189386016174 10.545053342681582 0.0 0.0 0.0 20.0" Properties=species:S:1:pos:R:3:move_mask:L:1:tags:I:1:momenta:R:3 pbc="T T F"
Fe      12.17637877       2.34334519       0.00000000  F        8       0.00000000       0.00000000       0.00000000
Fe       4.05879292       2.34334519       0.00000000  F        8       0.00000000       0.00000000       0.00000000
Fe       8.11758585       2.34334519       0.00000000  F        8       0.00000000       0.00000000       0.00000000
Fe      14.20577523       5.85836297       0.00000000  F        8       0.00000000       0.00000000       0.00000000
Fe       6.08818939       5.85836297       0.00000000  F        8       0.00000000       0.00000000       0.00000000
Fe      10.14698231       5.85836297       0.00000000  F        8       0.00000000       0.00000000       0.00000000
Fe      16.23517169       9.37338075       0.00000000  F        8       0.00000000       0.00000000       0.00000000
Fe       8.11758585       9.37338075       0.00000000  F        8       0.00000000       0.00000000       0.00000000
Fe      12.17637877       9.37338075       0.00000000  F        8       0.00000000       0.00000000       0.00000000
Fe       0.00000000       0.00000000       0.82849764  F        7       0.00000000       0.00000000       0.00000000
Fe       4.05879292       0.00000000       0.82849764  F        7       0.00000000       0.00000000       0.00000000
Fe       8.11758585       0.00000000       0.82849764  F        7       0.00000000       0.00000000       0.00000000
Fe       2.02939646       3.51501778       0.82849764  F        7       0.00000000       0.00000000       0.00000000
Fe       6.08818939       3.51501778       0.82849764  F        7       0.00000000       0.00000000       0.00000000
Fe      10.14698231       3.51501778       0.82849764  F        7       0.00000000       0.00000000       0.00000000
Fe       4.05879292       7.03003556       0.82849764  F        7       0.00000000       0.00000000       0.00000000
Fe       8.11758585       7.03003556       0.82849764  F        7       0.00000000       0.00000000       0.00000000
Fe      12.17637877       7.03003556       0.82849764  F        7       0.00000000       0.00000000       0.00000000
Fe       2.02939646       1.17167259       1.65699527  F        6       0.00000000       0.00000000       0.00000000
Fe       6.08818939       1.17167259       1.65699527  F        6       0.00000000       0.00000000       0.00000000
Fe      10.14698231       1.17167259       1.65699527  F        6       0.00000000       0.00000000       0.00000000
Fe       4.05879292       4.68669037       1.65699527  F        6       0.00000000       0.00000000       0.00000000
Fe       8.11758585       4.68669037       1.65699527  F        6       0.00000000       0.00000000       0.00000000
Fe      12.17637877       4.68669037       1.65699527  F        6       0.00000000       0.00000000       0.00000000
Fe       6.08818939       8.20170816       1.65699527  F        6       0.00000000       0.00000000       0.00000000
Fe      10.14698231       8.20170816       1.65699527  F        6       0.00000000       0.00000000       0.00000000
Fe      14.20577523       8.20170816       1.65699527  F        6       0.00000000       0.00000000       0.00000000
Fe      12.37904293       2.51436147       2.17979509  T        5       0.58434133       0.76964511      -0.16857061
Fe       3.92173862       2.55420080       2.27849651  T        5      -0.08444647       1.44733000       1.09554817
Fe       8.15104038       2.36276788       2.19997717  T        5       0.29020527      -0.42039702       1.15815519
Fe      14.35900571       5.95270929       2.09503343  T        5       2.23194546      -0.32387463      -1.73062381
Fe       6.04100612       5.50220519       2.28686758  T        5      -0.59214796      -1.64249682       0.86655060
Fe      10.18672878       5.35844177       2.18999108  T        5       0.72931906      -1.87968053       0.23727574
Fe      16.38167272       9.41666262       2.37078395  T        5       1.45441119      -0.30377113       0.67322925
Fe       7.94628193       9.33204106       2.32880848  T        5      -1.91666551       0.40610844       1.32280704
Fe      11.97597379       9.25941333       2.22001008  T        5      -2.08815910      -2.30049322      -1.29720262
Fe       0.20131834       0.24960868       3.00544552  T        4       0.66084212      -0.02636355      -1.19064515
Fe       3.98857956       0.28190755       2.96082161  T        4       0.79080831       0.31311904      -1.28186785
Fe       8.11466281       0.16057699       3.00776527  T        4      -0.26587135      -0.82126369       1.08967230
Fe      14.15118241       3.95858230       3.20053163  T        4      -1.46832502       0.32945951       1.13533417
Fe       6.09197381       3.06476912       3.22356997  T        4      -0.13258465      -0.61149957       2.25144173
Fe      10.03537850       3.39214995       3.15016607  T        4      -0.44302642       1.17187196      -1.84542625
Fe       4.24413291       7.01354116       3.05239926  T        4      -1.28756800      -0.49019884       0.06192850
Fe       7.98941341       6.78762365       2.94962272  T        4      -1.71658231      -0.44178065      -1.11427226
Fe      11.98157832       6.83977987       3.01983111  T        4       1.42078024      -3.24555154      -0.15438263
Fe       2.01614992       1.62991994       3.95746403  T        3       0.14666305       1.61692178       0.11264012
Fe       6.02974730       0.82370310       3.93211643  T        3       0.53487374      -0.02982637      -1.07270438
Fe      10.24539729       0.74213679       4.03768500  T        3      -0.07848108      -0.94101965       0.21885594
Fe       4.17094904       4.70495549       3.95351969  T        3      -1.03996999      -0.25046031       0.47287037
Fe       8.33002314       4.78196702       3.88087357  T        3       1.95795036       1.30712172       0.29373874
Fe      11.98174148       4.76434210       4.02713129  T        3       0.94498051       1.10151604       1.63283061
Fe       6.38640195       8.46117455       4.07404266  T        3       2.09371468      -0.34534171       1.89219288
Fe       9.99609392       8.45125011       3.94102477  T        3       0.70233110       0.09056529       0.03512857
Fe      14.29264128       7.87732638       4.02028126  T        3       1.13273422      -0.35661495       1.39870653
Fe      12.02638230       2.08546438       4.42502922  T        2       0.56014177      -2.04916610      -0.60884043
Fe       4.17406493       2.13381641       4.56000754  T        2      -1.39932926      -1.88138013       1.59562824
Fe       8.22145750       2.29607113       4.57119810  T        2       1.31926622       0.95491886       0.68357702
Fe      14.30448423       5.47024295       4.65816366  T        2       1.42567274       0.39602580       1.72485455
Fe       6.12311756       5.99248124       4.54666228  T        2      -1.46742811      -1.16853959       1.10495197
Fe       9.99410819       6.08440140       4.53571803  T        2      -0.25617980       0.74305885       0.55140040
Fe      16.25094789       8.97108218       4.64998987  T        2      -0.03063875      -0.47366847       0.86552540
Fe       8.28487256      10.00565144       4.49605441  T        2       2.94698018       1.97990949       0.44949122
Fe      12.27862610       9.01582864       4.44896477  T        2       1.58245701       0.53370738      -2.57453569
Fe      17.91936676      10.23268977       5.12818282  T        1       0.83591543      -0.41599344       0.20710572
Fe      10.56874279      10.39928279       5.16937508  T        1       1.08789780       1.51078331      -0.45730415
Fe      14.28379291       9.95607698       5.24002373  T        1       1.40777651      -0.07568398       2.52420434
Fe       2.07413762       3.35738091       5.38437907  T        1       0.86349823      -0.26904400       3.08860331
Fe       6.25727166       4.12509376       5.41458791  T        1       0.86811214       1.83880658       2.19038279
Fe      10.02465993       3.86088248       5.13398781  T        1       1.71795203      -1.09131389       0.52902863
Fe       4.09211150       6.80643338       5.33446120  T        1       5.06293866       1.56051598       1.71132727
Fe       8.21791297       7.57870323       5.16533468  T        1       1.83416862      -1.23055778      -1.07125402
Fe      12.46830481       6.82577807       5.28525438  T        1       0.86186636       2.11079860       0.42891045
N        7.55759289       3.25529235       6.34977608  T        0       0.02087761       0.44536706       0.12044121
N        8.85518844       3.33802707       6.35036474  T        0      -0.36398490      -0.03762146       0.53866308
74
Lattice="12.176378772032349 0.0 0.0 6.088189386016174 10.545053342681582 0.0 0.0 0.0 20.0" Properties=species:S:1:pos:R:3:move_mask:L:1:tags:I:1:momenta:R:3 pbc="T T F"
Fe      12.17637877       2.34334519       0.00000000  F        8       0.00000000       0.00000000       0.00000000
Fe       4.05879292       2.34334519       0.00000000  F        8       0.00000000       0.00000000       0.00000000
Fe       8.11758585       2.34334519       0.00000000  F        8       0.00000000       0.00000000       0.00000000
Fe      14.20577523       5.85836297       0.00000000  F        8       0.00000000       0.00000000       0.00000000
Fe       6.08818939       5.85836297       0.00000000  F        8       0.00000000       0.00000000       0.00000000
Fe      10.14698231       5.85836297       0.00000000  F        8       0.00000000       0.00000000       0.00000000
Fe      16.23517169       9.37338075       0.00000000  F        8       0.00000000       0.00000000       0.00000000
Fe       8.11758585       9.37338075       0.00000000  F        8       0.00000000       0.00000000       0.00000000
Fe      12.17637877       9.37338075       0.00000000  F        8       0.00000000       0.00000000       0.00000000
Fe       0.00000000       0.00000000       0.82849764  F        7       0.00000000       0.00000000       0.00000000
Fe       4.05879292       0.00000000       0.82849764  F        7       0.00000000       0.00000000       0.00000000
Fe       8.11758585       0.00000000       0.82849764  F        7       0.00000000       0.00000000       0.00000000
Fe       2.02939646       3.51501778       0.82849764  F        7       0.00000000       0.00000000       0.00000000
Fe       6.08818939       3.51501778       0.82849764  F        7       0.00000000       0.00000000       0.00000000
Fe      10.14698231       3.51501778       0.82849764  F        7       0.00000000       0.00000000       0.00000000
Fe       4.05879292       7.03003556       0.82849764  F        7       0.00000000       0.00000000       0.00000000
Fe       8.11758585       7.03003556       0.82849764  F        7       0.00000000       0.00000000       0.00000000
Fe      12.17637877       7.03003556       0.82849764  F        7       0.00000000       0.00000000       0.00000000
Fe       2.02939646       1.17167259       1.65699527  F        6       0.00000000       0.00000000       0.00000000
Fe       6.08818939       1.17167259       1.65699527  F        6       0.00000000       0.00000000       0.00000000
Fe      10.14698231       1.17167259       1.65699527  F        6       0.00000000       0.00000000       0.00000000
Fe       4.05879292       4.68669037       1.65699527  F        6       0.00000000       0.00000000       0.00000000
Fe       8.11758585       4.68669037       1.65699527  F        6       0.00000000       0.00000000       0.00000000
Fe      12.17637877       4.68669037       1.65699527  F        6       0.00000000       0.00000000       0.00000000
Fe       6.08818939       8.20170816       1.65699527  F        6       0.00000000       0.00000000       0.00000000
Fe      10.14698231       8.20170816       1.65699527  F        6       0.00000000       0.00000000       0.00000000
Fe      14.20577523       8.20170816       1.65699527  F        6       0.00000000       0.00000000       0.00000000
Fe      12.37955852       2.51505370       2.17964878  T        5       0.57764195       0.79072584      -0.16114505
Fe       3.92165959       2.55549882       2.27947390  T        5      -0.09374893       1.47853707       1.10758802
Fe       8.15129483       2.36238966       2.20100859  T        5       0.28320613      -0.43224046       1.16666044
Fe      14.36099301       5.95243058       2.09349284  T        5       2.24731102      -0.30419472      -1.74166950
Fe       6.04048267       5.50073941       2.28764200  T        5      -0.58756092      -1.66143284       0.87905876
Fe      10.18737979       5.35680727       2.19021861  T        5       0.73802855      -1.80320383       0.27586211
Fe      16.38296777       9.41638877       2.37137902  T        5       1.46463084      -0.31359464       0.66793035
Fe       7.94458737       9.33239723       2.32998306  T        5      -1.90243627       0.39654781       1.32458859
Fe      11.97411780       9.25736675       2.21885387  T        5      -2.09507653      -2.31244279      -1.30895111
Fe       0.20190644       0.24957990       3.00438238  T        4       0.66462362      -0.03866708      -1.20551712
Fe       3.98927389       0.28217925       2.95968673  T        4       0.77396197       0.29915637      -1.27592636
Fe       8.11442155       0.15983034       3.00875221  T        4      -0.27803665      -0.86211647       1.13518110
Fe      14.14985962       3.95885411       3.20152292  T        4      -1.51365107       0.28299410       1.09895292
Fe       6.09185787       3.06423752       3.22559322  T        4      -0.12872393      -0.58644959       2.30933449
Fe      10.03500011       3.39314689       3.14848660  T        4      -0.40955824       1.07413689      -1.94012718
Fe       4.24298787       7.01310557       3.05246083  T        4      -1.29333850      -0.49161265       0.07698589
Fe       7.98788563       6.78725075       2.94863905  T        4      -1.72709619      -0.39828775      -1.10277796
Fe      11.98284735       6.83688710       3.01970464  T        4       1.43976014      -3.27461475      -0.13046729
Fe       2.01628744       1.63135899       3.95755855  T        3       0.16346847       1.62670421       0.10028154
Fe       6.03024581       0.82368004       3.93115797  T        3       0.58929360      -0.02198092      -1.08771520
Fe      10.24530403       0.74130588       4.03787345  T        3      -0.13216394      -0.93176124       0.20586383
Fe       4.17003469       4.70472290       3.95394853  T        3      -1.02070467      -0.27406251       0.49392719
Fe       8.33174424       4.78312772       3.88114731  T        3       1.92099397       1.30895107       0.32364169
Fe      11.98259393       4.76532282       4.02859656  T        3       0.97665626       1.10886880       1.67027364
Fe       6.38828335       8.46084934       4.07572451  T        3       2.14732507      -0.38793410       1.89874636
Fe       9.99671765       8.45132435       3.94105274  T        3       0.70360218       0.07668806       0.02785315
Fe      14.29364770       7.87700281       4.02152666  T        3       1.13567029      -0.37285762       1.40844849
Fe      12.02687787       2.08365221       4.42449016  T        2       0.55675142      -2.03513612      -0.60601204
Fe       4.17281401       2.13214255       4.56143650  T        2      -1.42039432      -1.89143627       1.62549861
Fe       8.22262951       2.29692064       4.57181225  T        2       1.32247067       0.95986656       0.70073701
Fe      14.30575348       5.47062605       4.65972725  T        2       1.43519917       0.46784879       1.79997157
Fe       6.12180594       5.99145422       4.54764407  T        2      -1.48901529      -1.14588766       1.10788726
Fe       9.99388546       6.08508594       4.53620100  T        2      -0.24565924       0.80026673       0.53706562
Fe      16.25090792       8.97065090       4.65076403  T        2      -0.05960267      -0.49853027       0.87955221
Fe       8.28750819      10.00741645       4.49645847  T        2       2.99398785       1.99848357       0.46139225
Fe      12.28004691       9.01630222       4.44666293  T        2       1.62037828       0.53374302      -2.61408300
Fe      17.92012935      10.23232833       5.12839190  T        1       0.88332235      -0.39850825       0.26447182
Fe      10.56971091      10.40062754       5.16897007  T        1       1.09427114       1.52022777      -0.45553861
Fe      14.28505345       9.95600966       5.24226364  T        1       1.43370909      -0.07609930       2.52438430
Fe       2.07491164       3.35714074       5.38713832  T        1       0.88131332      -0.27217701       3.13067841
Fe       6.25805226       4.12671874       5.41653544  T        1       0.89120565       1.82355940       2.19924324
Fe      10.02621333       3.85991266       5.13450442  T        1       1.78359757      -1.09491397       0.63623975
Fe       4.09663978       6.80782542       5.33598367  T        1       5.14442899       1.57725174       1.72035048
Fe       8.21955462       7.57760232       5.16436465  T        1       1.86629308      -1.25104247      -1.11544136
Fe      12.46908175       6.82766601       5.28562309  T        1       0.88959310       2.14487421       0.40191019
N        7.55781173       3.25690543       6.35019507  T        0       0.10291838       0.46663617       0.11671467
N        8.85371406       3.33785112       6.35228007  T        0      -0.46904785      -0.06182602       0.54371035
74
Lattice="12.176378772032349 0.0 0.0 6.088189386016174 10.545053342681582 0.0 0.0 0.0 20.0" Properties=species:S:1:pos:R:3:move_mask:L:1:tags:I:1:momenta:R:3 pbc="T T F"
Fe      12.17637877       2.34334519       0.00000000  F        8       0.00000000       0.00000000       0.00000000
Fe       4.05879292       2.34334519       0.00000000  F        8       0.00000000       0.00000000       0.00000000
Fe       8.11758585       2.34334519       0.00000000  F        8       0.00000000       0.00000000       0.00000000
Fe      14.20577523       5.85836297       0.00000000  F        8       0.00000000       0.00000000       0.00000000
Fe       6.08818939       5.85836297       0.00000000  F        8       0.00000000       0.00000000       0.00000000
Fe      10.14698231       5.85836297       0.00000000  F        8       0.00000000       0.00000000       0.00000000
Fe      16.23517169       9.37338075       0.00000000  F        8       0.00000000       0.00000000       0.00000000
Fe       8.11758585       9.37338075       0.00000000  F        8       0.00000000       0.00000000       0.00000000
Fe      12.17637877       9.37338075       0.00000000  F        8       0.00000000       0.00000000       0.00000000
Fe       0.00000000       0.00000000       0.82849764  F        7       0.00000000       0.00000000       0.00000000
Fe       4.05879292       0.00000000       0.82849764  F        7       0.00000000       0.00000000       0.00000000
Fe       8.11758585       0.00000000       0.82849764  F        7       0.00000000       0.00000000       0.00000000
Fe       2.02939646       3.51501778       0.82849764  F        7       0.00000000       0.00000000       0.00000000
Fe       6.08818939       3.51501778       0.82849764  F        7       0.00000000       0.00000000       0.00000000
Fe      10.14698231       3.51501778       0.82849764  F        7       0.00000000       0.00000000       0.00000000
Fe       4.05879292       7.03003556       0.82849764  F        7       0.00000000       0.00000000       0.00000000
Fe       8.11758585       7.03003556       0.82849764  F        7       0.00000000       0.00000000       0.00000000
Fe      12.17637877       7.03003556       0.82849764  F        7       0.00000000       0.00000000       0.00000000
Fe       2.02939646       1.17167259       1.65699527  F        6       0.00000000       0.00000000       0.00000000
Fe       6.08818939       1.17167259       1.65699527  F        6       0.00000000       0.00000000       0.00000000
Fe      10.14698231       1.17167259       1.65699527  F        6       0.00000000       0.00000000       0.00000000
Fe       4.05879292       4.68669037       1.65699527  F        6       0.00000000       0.00000000       0.00000000
Fe       8.11758585       4.68669037       1.65699527  F        6       0.00000000       0.00000000       0.00000000
Fe      12.17637877       4.68669037       1.65699527  F        6       0.00000000       0.00000000       0.00000000
Fe       6.08818939       8.20170816       1.65699527  F        6       0.00000000       0.00000000       0.00000000
Fe      10.14698231       8.20170816       1.65699527  F        6       0.00000000       0.00000000       0.00000000
Fe      14.20577523       8.20170816       1.65699527  F        6       0.00000000       0.00000000       0.00000000
Fe      12.38006039       2.51575425       2.17951125  T        5       0.56196246       0.80006825      -0.15114225
Fe       3.92157349       2.55680510       2.28044742  T        5      -0.10175929       1.48778741       1.10316555
Fe       8.15153922       2.36200653       2.20203213  T        5       0.27170813      -0.43782177       1.15763874
Fe      14.36296413       5.95217348       2.09196565  T        5       2.22870451      -0.27968190      -1.72615315
Fe       6.03997119       5.49927874       2.28841596  T        5      -0.57384703      -1.65553950       0.87851048
Fe      10.18802875       5.35526560       2.19047699  T        5       0.73561322      -1.69707715       0.31090771
Fe      16.38425252       9.41611025       2.37196045  T        5       1.45284994      -0.31892763       0.65234714
Fe       7.94293097       9.33273954       2.33114161  T        5      -1.85876766       0.38074512       1.30623719
Fe      11.97228352       9.25534019       2.21770449  T        5      -2.07019117      -2.28951830      -1.30115646
Fe       0.20248901       0.24954058       3.00332212  T        4       0.65818562      -0.05069516      -1.20196422
Fe       3.98994282       0.28243449       2.95857419  T        4       0.74496870       0.28043173      -1.25038448
Fe       8.11417307       0.15905845       3.00976478  T        4      -0.28625151      -0.89090271       1.16423830
Fe      14.14851626       3.95908077       3.20246733  T        4      -1.53703331       0.23186779       1.04593752
Fe       6.09174708       3.06373615       3.22763764  T        4      -0.12287326      -0.55200228       2.33332635
Fe      10.03465711       3.39404194       3.14674873  T        4      -0.36932563       0.95810675      -2.00570590
Fe       4.24185482       7.01267523       3.05253486  T        4      -1.27967350      -0.48561875       0.09114135
Fe       7.98637129       6.78692210       2.94768028  T        4      -1.71180153      -0.34792472      -1.07446068
Fe      11.98411431       6.83401195       3.01960130  T        4       1.43740681      -3.25424830      -0.10417947
Fe       2.01643785       1.63278522       3.95764066  T        3       0.17815199       1.61207730       0.08613184
Fe       6.03078529       0.82366438       3.93020052  T        3       0.63594933      -0.01344911      -1.08651066
Fe      10.24516450       0.74049559       4.03804761  T        3      -0.18472822      -0.90829262       0.18969905
Fe       4.16915117       4.70447275       3.95438970  T        3      -0.98557405      -0.29411153       0.50797153
Fe       8.33340679       4.78427261       3.88144364  T        3       1.85437262       1.29084080       0.34945091
Fe      11.98346177       4.76629527       4.03007332  T        3       0.99410226       1.09925620       1.68341337
Fe       6.39018425       8.46049125       4.07738711  T        3       2.16938949      -0.42518825       1.87686386
Fe       9.99733325       8.45138518       3.94107383  T        3       0.69440520       0.06149263       0.02002993
Fe      14.29464166       7.87666963       4.02276210  T        3       1.12143046      -0.38381618       1.39708897
Fe      12.02736296       2.08187968       4.42396179  T        2       0.54473833      -1.98989329      -0.59372468
Fe       4.17156304       2.13048483       4.56287070  T        2      -1.42040979      -1.87294865       1.63147101
Fe       8.22378691       2.29776185       4.57243238  T        2       1.30590177       0.95035679       0.70737773
Fe      14.30701219       5.47106702       4.66133413  T        2       1.42312732       0.53338244       1.84901269
Fe       6.12049480       5.99046287       4.54861371  T        2      -1.48834224      -1.10510832       1.09393902
Fe       9.99367548       6.08581099       4.53666402  T        2      -0.23107327       0.84617941       0.51438996
Fe      16.25084290       8.97020406       4.65153911  T        2      -0.08795698      -0.51612398       0.88060554
Fe       8.29014618      10.00917157       4.49686710  T        2       2.99655810       1.98718658       0.46660720
Fe      12.28148024       9.01676878       4.44436032  T        2       1.63460998       0.52580880      -2.61489813
Fe      17.92092265      10.23198784       5.12864866  T        1       0.91819434      -0.37467346       0.31844186
Fe      10.57067024      10.40196053       5.16857269  T        1       1.08427308       1.50673104      -0.44682200
Fe      14.28631825       9.95594294       5.24447019  T        1       1.43858551      -0.07545797       2.48634106
Fe       2.07568997       3.35690149       5.38989345  T        1       0.88621618      -0.27100788       3.12557071
Fe       6.25884143       4.12830578       5.41846166  T        1       0.90057204       1.78025136       2.17482218
Fe      10.02780157       3.85895390       5.13510848  T        1       1.82283165      -1.08256799       0.73549810
Fe       4.10117292       6.80921155       5.33749143  T        1       5.14993559       1.57049097       1.70359427
Fe       8.22120027       7.57649964       5.16336993  T        1       1.87078824      -1.25302474      -1.14337519
Fe      12.46987174       6.82955605       5.28596231  T        1       0.90441213       2.14725817       0.36836506
N        7.55831564       3.25856935       6.35059572  T        0       0.18315258       0.48098666       0.11184528
N        8.85189451       3.33759289       6.35418300  T        0      -0.56563996      -0.08502518       0.53970729
74
Lattice="12.176378772032349 0.0 0.0 6.088189386016174 10.545053342681582 0.0 0.0 0.0 20.0" Properties=species:S:1:pos:R:3:move_mask:L:1:tags:I:1:momenta:R:3 pbc="T T F"
Fe      12.17637877       2.34334519       0.00000000  F        8       0.00000000       0.00000000       0.00000000
Fe       4.05879292       2.34334519       0.00000000  F        8       0.00000000       0.00000000       0.00000000
Fe       8.11758585       2.34334519       0.00000000  F        8       0.00000000       0.00000000       0.00000000
Fe      14.20577523       5.85836297       0.00000000  F        8       0.00000000       0.00000000       0.00000000
Fe       6.08818939       5.85836297       0.00000000  F        8       0.00000000       0.00000000       0.00000000
Fe      10.14698231       5.85836297       0.00000000  F        8       0.00000000       0.00000000       0.00000000
Fe      16.23517169       9.37338075       0.00000000  F        8       0.00000000       0.00000000       0.00000000
Fe       8.11758585       9.37338075       0.00000000  F        8       0.00000000       0.00000000       0.00000000
Fe      12.17637877       9.37338075       0.00000000  F        8       0.00000000       0.00000000       0.00000000
Fe       0.00000000       0.00000000       0.82849764  F        7       0.00000000       0.00000000       0.00000000
Fe       4.05879292       0.00000000       0.82849764  F        7       0.00000000       0.00000000       0.00000000
Fe       8.11758585       0.00000000       0.82849764  F        7       0.00000000       0.00000000       0.00000000
Fe       2.02939646       3.51501778       0.82849764  F        7       0.00000000       0.00000000       0.00000000
Fe       6.08818939       3.51501778       0.82849764  F        7       0.00000000       0.00000000       0.00000000
Fe      10.14698231       3.51501778       0.82849764  F        7       0.00000000       0.00000000       0.00000000
Fe       4.05879292       7.03003556       0.82849764  F        7       0.00000000       0.00000000       0.00000000
Fe       8.11758585       7.03003556       0.82849764  F        7       0.00000000       0.00000000       0.00000000
Fe      12.17637877       7.03003556       0.82849764  F        7       0.00000000       0.00000000       0.00000000
Fe       2.02939646       1.17167259       1.65699527  F        6       0.00000000       0.00000000       0.00000000
Fe       6.08818939       1.17167259       1.65699527  F        6       0.00000000       0.00000000       0.00000000
Fe      10.14698231       1.17167259       1.65699527  F        6       0.00000000       0.00000000       0.00000000
Fe       4.05879292       4.68669037       1.65699527  F        6       0.00000000       0.00000000       0.00000000
Fe       8.11758585       4.68669037       1.65699527  F        6       0.00000000       0.00000000       0.00000000
Fe      12.17637877       4.68669037       1.65699527  F        6       0.00000000       0.00000000       0.00000000
Fe       6.08818939       8.20170816       1.65699527  F        6       0.00000000       0.00000000       0.00000000
Fe      10.14698231       8.20170816       1.65699527  F        6       0.00000000       0.00000000       0.00000000
Fe      14.20577523       8.20170816       1.65699527  F        6       0.00000000       0.00000000       0.00000000
Fe      12.38055064       2.51646620       2.17938194  T        5       0.54867048       0.81290893      -0.14179347
Fe       3.92147994       2.55812546       2.28142151  T        5      -0.11020958       1.50366550       1.10382435
Fe       8.15177452       2.36161669       2.20305236  T        5       0.26132437      -0.44547211       1.15382370
Fe      14.36492772       5.95193681       2.09044537  T        5       2.21992133      -0.25650352      -1.71801468
Fe       6.03946956       5.49781660       2.28919298  T        5      -0.56254725      -1.65711606       0.88196872
Fe      10.18867849       5.35381113       2.19076751  T        5       0.73640962      -1.59740181       0.34739993
Fe      16.38553273       9.41582571       2.37253072  T        5       1.44761425      -0.32580231       0.63960432
Fe       7.94130577       9.33306942       2.33228919  T        5      -1.82302202       0.36655967       1.29364654
Fe      11.97046294       9.25332467       2.21655672  T        5      -2.05440933      -2.27682887      -1.29930181
Fe       0.20306845       0.24949040       3.00226035  T        4       0.65448331      -0.06307317      -1.20339362
Fe       3.99058911       0.28267435       2.95747921  T        4       0.71915264       0.26295191      -1.23026438
Fe       8.11391618       0.15825748       3.01080764  T        4      -0.29582701      -0.92405797       1.19856365
Fe      14.14714603       3.95926347       3.20336949  T        4      -1.56759256       0.18214610       0.99820963
Fe       6.09164094       3.06326297       3.22971263  T        4      -0.11759497      -0.51989740       2.36798432
Fe      10.03434808       3.39483840       3.14494559  T        4      -0.33070158       0.84586960      -2.07902985
Fe       4.24072865       7.01224822       3.05262174  T        4      -1.27181101      -0.48182017       0.10573884
Fe       7.98486349       6.78663650       2.94674212  T        4      -1.70437584      -0.29895546      -1.05102063
Fe      11.98538505       6.83114182       3.01952071  T        4       1.44168763      -3.24819013      -0.07833066
Fe       2.01660196       1.63420507       3.95771062  T        3       0.19373031       1.60476042       0.07228400
Fe       6.03136855       0.82365630       3.92923977  T        3       0.68578392      -0.00473679      -1.09020295
Fe      10.24497790       0.73970231       4.03820836  T        3      -0.23816880      -0.88894684       0.17454142
Fe       4.16829469       4.70420366       3.95484534  T        3      -0.95476202      -0.31572276       0.52444652
Fe       8.33501808       4.78540666       3.88176425  T        3       1.79609621       1.27837305       0.37716443
Fe      11.98434899       4.76726352       4.03156858  T        3       1.01607401       1.09427721       1.70453870
Fe       6.39211334       8.46009869       4.07903806  T        3       2.20133554      -0.46421798       1.86362853
Fe       9.99794360       8.45143291       3.94108811  T        3       0.68849892       0.04663218       0.01227768
Fe      14.29562755       7.87632520       4.02399318  T        3       1.11220231      -0.39661405       1.39207755
Fe      12.02783959       2.08013911       4.42344196  T        2       0.53502564      -1.95340788      -0.58386118
Fe       4.17030632       2.12883591       4.56431681  T        2      -1.42693734      -1.86281175       1.64503144
Fe       8.22493504       2.29859847       4.57306110  T        2       1.29541480       0.94507468       0.71692180
Fe      14.30826597       5.47156772       4.66299163  T        2       1.41743820       0.60098007       1.90636658
Fe       6.11917832       5.98950319       4.54957539  T        2      -1.49430042      -1.06886463       1.08474583
Fe       9.99347751       6.08657985       4.53710914  T        2      -0.21734057       0.89581772       0.49402986
Fe      16.25075263       8.96973970       4.65231871  T        2      -0.11653859      -0.53592302       0.88574404
Fe       8.29279852      10.01092476       4.49728225  T        2       3.01276265       1.98491708       0.47403820
Fe      12.28293277       9.01723052       4.44204640  T        2       1.65644937       0.52035000      -2.62770501
Fe      17.92175039      10.23166685       5.12895410  T        1       0.95729316      -0.35247693       0.37355100
Fe      10.57162516      10.40328763       5.16818122  T        1       1.07925048       1.49993228      -0.44008751
Fe      14.28759323       9.95587645       5.24665320  T        1       1.45018288      -0.07524522       2.45945750
Fe       2.07647623       3.35666229       5.39265642  T        1       0.89526245      -0.27081858       3.13405934
Fe       6.25964219       4.12986172       5.42037503  T        1       0.91334956       1.74473879       2.16002741
Fe      10.02943149       3.85800142       5.13580292  T        1       1.86987588      -1.07565952       0.83801659
Fe       4.10573184       6.81059808       5.33899132  T        1       5.17923523       1.57091441       1.69462597
Fe       8.22285744       7.57539014       5.16234605  T        1       1.88382152      -1.26076262      -1.17639616
Fe      12.47067847       6.83145692       5.28627343  T        1       0.92343284       2.15955062       0.33643312
N        7.55910091       3.26029100       6.35098233  T        0       0.26189045       0.49728745       0.10824221
N        8.84973263       3.33725265       6.35607897  T        0      -0.66097426      -0.10811351       0.53728748
74
Lattice="12.176378772032349 0.0 0.0 6.088189386016174 10.545053342681582 0.0 0.0 0.0 20.0" Properties=species:S:1:pos:R:3:move_mask:L:1:tags:I:1:momenta:R:3 pbc="T T F"
Fe      12.17637877       2.34334519       0.00000000  F        8       0.00000000       0.00000000       0.00000000
Fe       4.05879292       2.34334519       0.00000000  F        8       0.00000000       0.00000000       0.00000000
Fe       8.11758585       2.34334519       0.00000000  F        8       0.00000000       0.00000000       0.00000000
Fe      14.20577523       5.85836297       0.00000000  F        8       0.00000000       0.00000000       0.00000000
Fe       6.08818939       5.85836297       0.00000000  F        8       0.00000000       0.00000000       0.00000000
Fe      10.14698231       5.85836297       0.00000000  F        8       0.00000000       0.00000000       0.00000000
Fe      16.23517169       9.37338075       0.00000000  F        8       0.00000000       0.00000000       0.00000000
Fe       8.11758585       9.37338075       0.00000000  F        8       0.00000000       0.00000000       0.00000000
Fe      12.17637877       9.37338075       0.00000000  F        8       0.00000000       0.00000000       0.00000000
Fe       0.00000000       0.00000000       0.82849764  F        7       0.00000000       0.00000000       0.00000000
Fe       4.05879292       0.00000000       0.82849764  F        7       0.00000000       0.00000000       0.00000000
Fe       8.11758585       0.00000000       0.82849764  F        7       0.00000000       0.00000000       0.00000000
Fe       2.02939646       3.51501778       0.82849764  F        7       0.00000000       0.00000000       0.00000000
Fe       6.08818939       3.51501778       0.82849764  F        7       0.00000000       0.00000000       0.00000000
Fe      10.14698231       3.51501778       0.82849764  F        7       0.00000000       0.00000000       0.00000000
Fe       4.05879292       7.03003556       0.82849764  F        7       0.00000000       0.00000000       0.00000000
Fe       8.11758585       7.03003556       0.82849764  F        7       0.00000000       0.00000000       0.00000000
Fe      12.17637877       7.03003556       0.82849764  F        7       0.00000000       0.00000000       0.00000000
Fe       2.02939646       1.17167259       1.65699527  F        6       0.00000000       0.00000000       0.00000000
Fe       6.08818939       1.17167259       1.65699527  F        6       0.00000000       0.00000000       0.00000000
Fe      10.14698231       1.17167259       1.65699527  F        6       0.00000000       0.00000000       0.00000000
Fe       4.05879292       4.68669037       1.65699527  F        6       0.00000000       0.00000000       0.00000000
Fe       8.11758585       4.68669037       1.65699527  F        6       0.00000000       0.00000000       0.00000000
Fe      12.17637877       4.68669037       1.65699527  F        6       0.00000000       0.00000000       0.00000000
Fe       6.08818939       8.20170816       1.65699527  F        6       0.00000000       0.00000000       0.00000000
Fe      10.14698231       8.20170816       1.65699527  F        6       0.00000000       0.00000000       0.00000000
Fe      14.20577523       8.20170816       1.65699527  F        6       0.00000000       0.00000000       0.00000000
Fe      12.38102677       2.51718604       2.17926151  T        5       0.53251882       0.82176051      -0.13169056
Fe       3.92137938       2.55945352       2.28239159  T        5      -0.11814273       1.51225882       1.09926233
Fe       8.15199949       2.36122192       2.20406436  T        5       0.24951917      -0.45109867       1.14440374
Fe      14.36687410       5.95172170       2.08893970  T        5       2.20014131      -0.23206336      -1.70111973
Fe       6.03898037       5.49636004       2.28996938  T        5      -0.54830447      -1.65069430       0.88122473
Fe      10.18932579       5.35245209       2.19108887  T        5       0.73353694      -1.48838603       0.38242003
Fe      16.38680222       9.41553641       2.37308699  T        5       1.43535582      -0.33123824       0.62361473
Fe       7.93972007       9.33338517       2.33342012  T        5      -1.77784722       0.35044117       1.27462057
Fe      11.96866507       9.25132999       2.21541602  T        5      -2.02839429      -2.25299178      -1.29123416
Fe       0.20364175       0.24942948       3.00120257  T        4       0.64736460      -0.07532108      -1.19856070
Fe       3.99120947       0.28289763       2.95640731  T        4       0.68957048       0.24411041      -1.20389297
Fe       8.11365203       0.15743090       3.01187583  T        4      -0.30408577      -0.95324918       1.22726326
Fe      14.14575525       3.95940158       3.20422549  T        4      -1.59094768       0.13171785       0.94605167
Fe       6.09153995       3.06282045       3.23180839  T        4      -0.11174636      -0.48499333       2.39150150
Fe      10.03407464       3.39553178       3.14308691  T        4      -0.29025756       0.72856112      -2.14126158
Fe       4.23961477       7.01182660       3.05272110  T        4      -1.25779824      -0.47568282       0.11991878
Fe       7.98336936       6.78639555       2.94582911  T        4      -1.68883304      -0.24816171      -1.02243493
Fe      11.98665357       6.82829088       3.01946334  T        4       1.43917546      -3.22603134      -0.05196345
Fe       2.01677907       1.63561170       3.95776798  T        3       0.20852993       1.58969769       0.05793916
Fe       6.03199316       0.82365604       3.92828034  T        3       0.73282752       0.00428434      -1.08863388
Fe      10.24474501       0.73892988       4.03835503  T        3      -0.29071711      -0.86525396       0.15863903
Fe       4.16746954       4.70391667       3.95531341  T        3      -0.91908653      -0.33614430       0.53860348
Fe       8.33657027       4.78652422       3.88210794  T        3       1.72890406       1.25949025       0.40348893
Fe      11.98525139       4.76822263       4.03307553  T        3       1.03326217       1.08365115       1.71792445
Fe       6.39406148       8.45967361       4.08066954  T        3       2.22287402      -0.50101318       1.84152004
Fe       9.99854591       8.45146732       3.94109546  T        3       0.67940696       0.03154397       0.00440920
Fe      14.29660059       7.87597107       4.02521398  T        3       1.09751653      -0.40766170       1.38036567
Fe      12.02830531       2.07843913       4.42293343  T        2       0.52252379      -1.90711488      -0.57087799
Fe       4.16904977       2.12720384       4.56576811  T        2      -1.42670337      -1.84353304       1.65093669
Fe       8.22606853       2.29942641       4.57369510  T        2       1.27883148       0.93510482       0.72265493
Fe      14.30950874       5.47212554       4.66469183  T        2       1.40484605       0.66559747       1.95471164
Fe       6.11786288       5.98858027       4.55052429  T        2      -1.49297556      -1.02685652       1.07008959
Fe       9.99329268       6.08738881       4.53753416  T        2      -0.20230950       0.94123032       0.47118710
Fe      16.25063764       8.96926014       4.65309918  T        2      -0.14449375      -0.55308317       0.88674044
Fe       8.29545259      10.01266763       4.49770203  T        2       3.01460212       1.97311245       0.47932466
Fe      12.28439776       9.01768528       4.43973212  T        2       1.67061860       0.51246070      -2.62807508
Fe      17.92260873      10.23136701       5.12930660  T        1       0.99200931      -0.32843497       0.42677328
Fe      10.57257113      10.40460237       5.16779756  T        1       1.06908453       1.48575900      -0.43116657
Fe      14.28887247       9.95581041       5.24880205  T        1       1.45506180      -0.07475605       2.42052027
Fe       2.07726680       3.35642450       5.39541350  T        1       0.90017248      -0.26906979       3.12692585
Fe       6.26045012       4.13137880       5.42226613  T        1       0.92107512       1.70042676       2.13452849
Fe      10.03109499       3.85705933       5.13658449  T        1       1.90771497      -1.06407586       0.93678555
Fe       4.11029515       6.81197842       5.34047619  T        1       5.18420695       1.56385320       1.67754098
Fe       8.22451826       7.57427905       5.16129794  T        1       1.88790974      -1.26254912      -1.20380028
Fe      12.47149819       6.83335969       5.28655487  T        1       0.93819856       2.16168888       0.30269382
N        7.56015470       3.26206141       6.35135582  T        0       0.33651131       0.51100712       0.10493853
N        8.84725300       3.33683369       6.35795595  T        0      -0.74884724      -0.13023353       0.53147531
74
Lattice="12.176378772032349 0.0 0.0 6.088189386016174 10.545053342681582 0.0 0.0 0.0 20.0" Properties=species:S:1:pos:R:3:move_mask:L:1:tags:I:1:momenta:R:3 pbc="T T F"
Fe      12.17637877       2.34334519       0.00000000  F        8       0.00000000       0.00000000       0.00000000
Fe       4.05879292       2.34334519       0.00000000  F        8       0.00000000       0.00000000       0.00000000
Fe       8.11758585       2.34334519       0.00000000  F        8       0.00000000       0.00000000       0.00000000
Fe      14.20577523       5.85836297       0.00000000  F        8       0.00000000       0.00000000       0.00000000
Fe       6.08818939       5.85836297       0.00000000  F        8       0.00000000       0.00000000       0.00000000
Fe      10.14698231       5.85836297       0.00000000  F        8       0.00000000       0.00000000       0.00000000
Fe      16.23517169       9.37338075       0.00000000  F        8       0.00000000       0.00000000       0.00000000
Fe       8.11758585       9.37338075       0.00000000  F        8       0.00000000       0.00000000       0.00000000
Fe      12.17637877       9.37338075       0.00000000  F        8       0.00000000       0.00000000       0.00000000
Fe       0.00000000       0.00000000       0.82849764  F        7       0.00000000       0.00000000       0.00000000
Fe       4.05879292       0.00000000       0.82849764  F        7       0.00000000       0.00000000       0.00000000
Fe       8.11758585       0.00000000       0.82849764  F        7       0.00000000       0.00000000       0.00000000
Fe       2.02939646       3.51501778       0.82849764  F        7       0.00000000       0.00000000       0.00000000
Fe       6.08818939       3.51501778       0.82849764  F        7       0.00000000       0.00000000       0.00000000
Fe      10.14698231       3.51501778       0.82849764  F        7       0.00000000       0.00000000       0.00000000
Fe       4.05879292       7.03003556       0.82849764  F        7       0.00000000       0.00000000       0.00000000
Fe       8.11758585       7.03003556       0.82849764  F        7       0.00000000       0.00000000       0.00000000
Fe      12.17637877       7.03003556       0.82849764  F        7       0.00000000       0.00000000       0.00000000
Fe       2.02939646       1.17167259       1.65699527  F        6       0.00000000       0.00000000       0.00000000
Fe       6.08818939       1.17167259       1.65699527  F        6       0.00000000       0.00000000       0.00000000
Fe      10.14698231       1.17167259       1.65699527  F        6       0.00000000       0.00000000       0.00000000
Fe       4.05879292       4.68669037       1.65699527  F        6       0.00000000       0.00000000       0.00000000
Fe       8.11758585       4.68669037       1.65699527  F        6       0.00000000       0.00000000       0.00000000
Fe      12.17637877       4.68669037       1.65699527  F        6       0.00000000       0.00000000       0.00000000
Fe       6.08818939       8.20170816       1.65699527  F        6       0.00000000       0.00000000       0.00000000
Fe      10.14698231       8.20170816       1.65699527  F        6       0.00000000       0.00000000       0.00000000
Fe      14.20577523       8.20170816       1.65699527  F        6       0.00000000       0.00000000       0.00000000
Fe      12.38148631       2.51791008       2.17915055  T        5       0.51358300       0.82641032      -0.12091178
Fe       3.92127236       2.56078258       2.28335297  T        5      -0.12546126       1.51325627       1.08936818
Fe       8.15221294       2.36082409       2.20506314  T        5       0.23636891      -0.45458208       1.12930403
Fe      14.36879348       5.95152906       2.08745642  T        5       2.16923261      -0.20657094      -1.67537219
Fe       6.03850616       5.49491625       2.29074134  T        5      -0.53117606      -1.63609460       0.87615711
Fe      10.18996735       5.35119596       2.19143944  T        5       0.72690680      -1.37089124       0.41557517
Fe      16.38805473       9.41524371       2.37362645  T        5       1.41598649      -0.33513646       0.60444460
Fe       7.93818200       9.33368517       2.33452876  T        5      -1.72341912       0.33249558       1.24916024
Fe      11.96689894       9.24936605       2.21428795  T        5      -1.99209902      -2.21790975      -1.27684428
Fe       0.20420590       0.24935806       3.00015441  T        4       0.63679948      -0.08730823      -1.18732319
Fe       3.99180072       0.28310326       2.95536391  T        4       0.65641384       0.22406011      -1.17135082
Fe       8.11338189       0.15658257       3.01296400  T        4      -0.31090418      -0.97805831       1.24987684
Fe      14.14435065       3.95949491       3.20503175  T        4      -1.60663061       0.08108578       0.88986407
Fe       6.09144459       3.06241081       3.23391463  T        4      -0.10537106      -0.44755878       2.40330769
Fe      10.03383808       3.39611852       3.14118328  T        4      -0.24834885       0.60725154      -2.19142112
Fe       4.23851863       7.01141242       3.05283244  T        4      -1.23758617      -0.46719728       0.13352482
Fe       7.98189613       6.78620046       2.94494565  T        4      -1.66507984      -0.19601070      -0.98883685
Fe      11.98791375       6.82547352       3.01942941  T        4       1.42968720      -3.18750618      -0.02533027
Fe       2.01696836       1.63699825       3.95781242  T        3       0.22237416       1.56680426       0.04322780
Fe       6.03265617       0.82366382       3.92732698  T        3       0.77650958       0.01353189      -1.08165316
Fe      10.24446709       0.73818202       4.03848709  T        3      -0.34180196      -0.83732342       0.14213620
Fe       4.16667981       4.70361303       3.95579169  T        3      -0.87877234      -0.35513329       0.55023028
Fe       8.33805586       4.78761965       3.88247320  T        3       1.65323339       1.23418705       0.42809358
Fe      11.98616448       4.76916756       4.03458706  T        3       1.04533670       1.06730968       1.72320071
Fe       6.39601905       8.45921838       4.08227371  T        3       2.23346317      -0.53512398       1.81049136
Fe       9.99913735       8.45148833       3.94109585  T        3       0.66712555       0.01637496      -0.00350314
Fe      14.29755595       7.87560891       4.02641855  T        3       1.07735902      -0.41679460       1.36186598
Fe      12.02875769       2.07678821       4.42243890  T        2       0.50727352      -1.85119440      -0.55481729
Fe       4.16779952       2.12559673       4.56721759  T        2      -1.41950089      -1.81503021       1.64889147
Fe       8.22718201       2.30024150       4.57433084  T        2       1.25614234       0.92036911       0.72431650
Fe      14.31073436       5.47273721       4.66642616  T        2       1.38527517       0.72647886       1.99327130
Fe       6.11655508       5.98769895       4.55145559  T        2      -1.48415556      -0.97935080       1.04995471
Fe       9.99312204       6.08823364       4.53793704  T        2      -0.18609699       0.98181492       0.44601135
Fe      16.25049875       8.96876791       4.65387676  T        2      -0.17151125      -0.56734383       0.88345751
Fe       8.29809534      10.01439162       4.49812445  T        2       3.00162148       1.95159977       0.48234668
Fe      12.28586813       9.01813094       4.43742874  T        2       1.67673840       0.50214678      -2.61562702
Fe      17.92349340      10.23108978       5.12970397  T        1       1.02184687      -0.30273956       0.47750463
Fe      10.57350360      10.40589819       5.16742363  T        1       1.05372559       1.46413215      -0.42008748
Fe      14.29014985       9.95574509       5.25090618  T        1       1.45296835      -0.07398405       2.36955674
Fe       2.07805788       3.35618952       5.39815059  T        1       0.90077045      -0.26573146       3.10377063
Fe       6.26126057       4.13284946       5.42412550  T        1       0.92349888       1.64751707       2.09824228
Fe      10.03278344       3.85613178       5.13744890  T        1       1.93574130      -1.04776927       1.03061504
Fe       4.11484076       6.81334585       5.34193884  T        1       5.16404841       1.54915106       1.65226834
Fe       8.22617459       7.57317178       5.16023091  T        1       1.88273743      -1.25818443      -1.22513815
Fe      12.47232693       6.83525513       5.28680528  T        1       0.94843016       2.15333998       0.26743662
N        7.56145826       3.26387074       6.35171745  T        0       0.40531024       0.52190987       0.10201996
N        8.84448676       3.33634033       6.35980209  T        0      -0.82736883      -0.15110081       0.52232307
74
Lattice="12.176378772032349 0.0 0.0 6.088189386016174 10.545053342681582 0.0 0.0 0.0 20.0" Properties=species:S:1:pos:R:3:move_mask:L:1:tags:I:1:momenta:R:3 pbc="T T F"
Fe      12.17637877       2.34334519       0.00000000  F        8       0.00000000       0.00000000       0.00000000
Fe       4.05879292       2.34334519       0.00000000  F        8       0.00000000       0.00000000       0.00000000
Fe       8.11758585       2.34334519       0.00000000  F        8       0.00000000       0.00000000       0.00000000
Fe      14.20577523       5.85836297       0.00000000  F        8       0.00000000       0.00000000       0.00000000
Fe       6.08818939       5.85836297       0.00000000  F        8       0.00000000       0.00000000       0.00000000
Fe      10.14698231       5.85836297       0.00000000  F        8       0.00000000       0.00000000       0.00000000
Fe      16.23517169       9.37338075       0.00000000  F        8       0.00000000       0.00000000       0.00000000
Fe       8.11758585       9.37338075       0.00000000  F        8       0.00000000       0.00000000       0.00000000
Fe      12.17637877       9.37338075       0.00000000  F        8       0.00000000       0.00000000       0.00000000
Fe       0.00000000       0.00000000       0.82849764  F        7       0.00000000       0.00000000       0.00000000
Fe       4.05879292       0.00000000       0.82849764  F        7       0.00000000       0.00000000       0.00000000
Fe       8.11758585       0.00000000       0.82849764  F        7       0.00000000       0.00000000       0.00000000
Fe       2.02939646       3.51501778       0.82849764  F        7       0.00000000       0.00000000       0.00000000
Fe       6.08818939       3.51501778       0.82849764  F        7       0.00000000       0.00000000       0.00000000
Fe      10.14698231       3.51501778       0.82849764  F        7       0.00000000       0.00000000       0.00000000
Fe       4.05879292       7.03003556       0.82849764  F        7       0.00000000       0.00000000       0.00000000
Fe       8.11758585       7.03003556       0.82849764  F        7       0.00000000       0.00000000       0.00000000
Fe      12.17637877       7.03003556       0.82849764  F        7       0.00000000       0.00000000       0.00000000
Fe       2.02939646       1.17167259       1.65699527  F        6       0.00000000       0.00000000       0.00000000
Fe       6.08818939       1.17167259       1.65699527  F        6       0.00000000       0.00000000       0.00000000
Fe      10.14698231       1.17167259       1.65699527  F        6       0.00000000       0.00000000       0.00000000
Fe       4.05879292       4.68669037       1.65699527  F        6       0.00000000       0.00000000       0.00000000
Fe       8.11758585       4.68669037       1.65699527  F        6       0.00000000       0.00000000       0.00000000
Fe      12.17637877       4.68669037       1.65699527  F        6       0.00000000       0.00000000       0.00000000
Fe       6.08818939       8.20170816       1.65699527  F        6       0.00000000       0.00000000       0.00000000
Fe      10.14698231       8.20170816       1.65699527  F        6       0.00000000       0.00000000       0.00000000
Fe      14.20577523       8.20170816       1.65699527  F        6       0.00000000       0.00000000       0.00000000
Fe      12.38192733       2.51863515       2.17904949  T        5       0.49245197       0.82745362      -0.10965933
Fe       3.92115938       2.56210701       2.28430180  T        5      -0.13218821       1.50782793       1.07509727
Fe       8.15241396       2.36042481       2.20604460  T        5       0.22218916      -0.45624447       1.10956019
Fe      14.37067785       5.95135947       2.08600194  T        5       2.12920244      -0.18044766      -1.64233381
Fe       6.03804895       5.49349115       2.29150572  T        5      -0.51174935      -1.61474360       0.86750251
Fe      10.19060042       5.35004823       2.19181758  T        5       0.71714678      -1.24719541       0.44686367
Fe      16.38928515       9.41494875       2.37414688  T        5       1.39081121      -0.33772166       0.58276198
Fe       7.93669805       9.33396820       2.33561052  T        5      -1.66163148       0.31316329       1.21850106
Fe      11.96517192       9.24744089       2.21317708  T        5      -1.94744394      -2.17367097      -1.25727654
Fe       0.20475838       0.24927639       2.99912060  T        4       0.62338967      -0.09898165      -1.17071282
Fe       3.99236049       0.28329052       2.95435335  T        4       0.62053420       0.20318263      -1.13388184
Fe       8.11310686       0.15571588       3.01406748  T        4      -0.31645834      -0.99900618       1.26715574
Fe      14.14293802       3.95954377       3.20578586  T        4      -1.61573299       0.03084491       0.83092887
Fe       6.09135519       3.06203566       3.23602259  T        4      -0.09861798      -0.40831917       2.40517380
Fe      10.03363916       3.39659659       3.13924426  T        4      -0.20559229       0.48366770      -2.23067905
Fe       4.23744466       7.01100737       3.05295524  T        4      -1.21234353      -0.45681498       0.14652476
Fe       7.98044965       6.78605184       2.94409519  T        4      -1.63465787      -0.14318667      -0.95134083
Fe      11.98916053       6.82270160       3.01941892  T        4       1.41443926      -3.13548914       0.00127902
Fe       2.01716900       1.63835909       3.95784378  T        3       0.23529613       1.53753609       0.02833037
Fe       6.03335477       0.82367977       3.92638366  T        3       0.81699376       0.02292770      -1.07017205
Fe      10.24414566       0.73746163       4.03860427  T        3      -0.39116466      -0.80609499       0.12531953
Fe       4.16592861       4.70329394       3.95627824  T        3      -0.83492334      -0.37278097       0.55964486
Fe       8.33946921       4.78868837       3.88285860  T        3       1.57117037       1.20367906       0.45105050
Fe      11.98708439       4.77009415       4.03609716  T        3       1.05298493       1.04624241       1.72167199
Fe       6.39797786       8.45873528       4.08384423  T        3       2.23473844      -0.56661192       1.77227539
Fe       9.99971571       8.45149603       3.94108932  T        3       0.65230529       0.00129377      -0.01138687
Fe      14.29848974       7.87524022       4.02760201  T        3       1.05277833      -0.42424915       1.33782956
Fe      12.02919481       2.07519306       4.42196056  T        2       0.48982196      -1.78766500      -0.53627537
Fe       4.16656067       2.12402119       4.56865944  T        2      -1.40651194      -1.77901046       1.64020962
Fe       8.22827118       2.30104028       4.57496519  T        2       1.22857119       0.90169960       0.72236523
Fe      14.31193782       5.47339942       4.66818703  T        2       1.36001270       0.78355963       2.02320143
Fe       6.11526041       5.98686297       4.55236538  T        2      -1.46908461      -0.92760165       1.02536474
Fe       9.99296636       6.08911042       4.53831624  T        2      -0.16901324       1.01791447       0.41909830
Fe      16.25033690       8.96826530       4.65464832  T        2      -0.19743941      -0.57899583       0.87662013
Fe       8.30071593      10.01608975       4.49854783  T        2       2.97630335       1.92212194       0.48345314
Fe      12.28733791       9.01856579       4.43514562  T        2       1.67606060       0.48990729      -2.59253816
Fe      17.92440054      10.23083616       5.13014390  T        1       1.04729510      -0.27589043       0.52559295
Fe      10.57441884      10.40716973       5.16706094  T        1       1.03415932       1.43641587      -0.40729404
Fe      14.29142025       9.95568068       5.25295707  T        1       1.44506473      -0.07299496       2.30893341
Fe       2.07884630       3.35595854       5.40085596  T        1       0.89775849      -0.26103942       3.06724859
Fe       6.26206948       4.13426772       5.42594540  T        1       0.92129190       1.58784733       2.05315904
Fe      10.03448931       3.85522207       5.13839167  T        1       1.95523513      -1.02771168       1.11928636
Fe       4.11935030       6.81469485       5.34337344  T        1       5.12300427       1.52817132       1.62036046
Fe       8.22781964       7.57207283       5.15914966  T        1       1.86983046      -1.24869857      -1.24114951
Fe      12.47316126       6.83713557       5.28702382  T        1       0.95476925       2.13627520       0.23123086
N        7.56298826       3.26571013       6.35206905  T        0       0.46696712       0.53027304       0.09964685
N        8.84146879       3.33577733       6.36160756  T        0      -0.89547611      -0.17058400       0.51042044
74
Lattice="12.176378772032349 0.0 0.0 6.088189386016174 10.545053342681582 0.0 0.0 0.0 20.0" Properties=species:S:1:pos:R:3:move_mask:L:1:tags:I:1:momenta:R:3 pbc="T T F"
Fe      12.17637877       2.34334519       0.00000000  F        8       0.00000000       0.00000000       0.00000000
Fe       4.05879292       2.34334519       0.00000000  F        8       0.00000000       0.00000000       0.00000000
Fe       8.11758585       2.34334519       0.00000000  F        8       0.00000000       0.00000000       0.00000000
Fe      14.20577523       5.85836297       0.00000000  F        8       0.00000000       0.00000000       0.00000000
Fe       6.08818939       5.85836297       0.00000000  F        8       0.00000000       0.00000000       0.00000000
Fe      10.14698231       5.85836297       0.00000000  F        8       0.00000000       0.00000000       0.00000000
Fe      16.23517169       9.37338075       0.00000000  F        8       0.00000000       0.00000000       0.00000000
Fe       8.11758585       9.37338075       0.00000000  F        8       0.00000000       0.00000000       0.00000000
Fe      12.17637877       9.37338075       0.00000000  F        8       0.00000000       0.00000000       0.00000000
Fe       0.00000000       0.00000000       0.82849764  F        7       0.00000000       0.00000000       0.00000000
Fe       4.05879292       0.00000000       0.82849764  F        7       0.00000000       0.00000000       0.00000000
Fe       8.11758585       0.00000000       0.82849764  F        7       0.00000000       0.00000000       0.00000000
Fe       2.02939646       3.51501778       0.82849764  F        7       0.00000000       0.00000000       0.00000000
Fe       6.08818939       3.51501778       0.82849764  F        7       0.00000000       0.00000000       0.00000000
Fe      10.14698231       3.51501778       0.82849764  F        7       0.00000000       0.00000000       0.00000000
Fe       4.05879292       7.03003556       0.82849764  F        7       0.00000000       0.00000000       0.00000000
Fe       8.11758585       7.03003556       0.82849764  F        7       0.00000000       0.00000000       0.00000000
Fe      12.17637877       7.03003556       0.82849764  F        7       0.00000000       0.00000000       0.00000000
Fe       2.02939646       1.17167259       1.65699527  F        6       0.00000000       0.00000000       0.00000000
Fe       6.08818939       1.17167259       1.65699527  F        6       0.00000000       0.00000000       0.00000000
Fe      10.14698231       1.17167259       1.65699527  F        6       0.00000000       0.00000000       0.00000000
Fe       4.05879292       4.68669037       1.65699527  F        6       0.00000000       0.00000000       0.00000000
Fe       8.11758585       4.68669037       1.65699527  F        6       0.00000000       0.00000000       0.00000000
Fe      12.17637877       4.68669037       1.65699527  F        6       0.00000000       0.00000000       0.00000000
Fe       6.08818939       8.20170816       1.65699527  F        6       0.00000000       0.00000000       0.00000000
Fe      10.14698231       8.20170816       1.65699527  F        6       0.00000000       0.00000000       0.00000000
Fe      14.20577523       8.20170816       1.65699527  F        6       0.00000000       0.00000000       0.00000000
Fe      12.38235464       2.51936911       2.17895719  T        5       0.47677502       0.83743339      -0.09969209
Fe       3.92103927       2.56344132       2.28524868  T        5      -0.14027110       1.51889730       1.07288862
Fe       8.15260472       2.36001960       2.20701961  T        5       0.21047032      -0.46299560       1.10217790
Fe      14.37254788       5.95121088       2.08456051  T        5       2.11269983      -0.15665597      -1.62720040
Fe       6.03760380       5.49206899       2.29227100  T        5      -0.49795476      -1.61132554       0.86849914
Fe      10.19123189       5.34899679       2.19222739  T        5       0.71521522      -1.13730085       0.48280801
Fe      16.39050713       9.41464821       2.37465402  T        5       1.38115116      -0.34409815       0.56759574
Fe       7.93525207       9.33423736       2.33667733  T        5      -1.61822215       0.29736084       1.20139595
Fe      11.96346504       9.24553324       2.21207101  T        5      -1.92435824      -2.15363632      -1.25177597
Fe       0.20530512       0.24918352       2.99809011  T        4       0.61670659      -0.11174361      -1.16662677
Fe       3.99289490       0.28346153       2.95336455  T        4       0.59165712       0.18474302      -1.10901032
Fe       8.11282388       0.15482104       3.01519836  T        4      -0.32550456      -1.03108024       1.29818376
Fe      14.14150165       3.95954929       3.20649692  T        4      -1.64268894      -0.01808942       0.78237426
Fe       6.09127070       3.06169083       3.23815564  T        4      -0.09304314      -0.37380239       2.43359143
Fe      10.03347556       3.39697136       3.13724995  T        4      -0.16547114       0.36622881      -2.29252052
Fe       4.23638092       7.01060693       3.05309081  T        4      -1.20067899      -0.45155671       0.16103140
Fe       7.97901375       6.78594798       2.94326817  T        4      -1.62263100      -0.09231737      -0.92470339
Fe      11.99040782       6.81994475       3.01943167  T        4       1.41502723      -3.11799722       0.02765643
Fe       2.01738325       1.63970937       3.95786237  T        3       0.25075454       1.52547300       0.01380174
Fe       6.03409677       0.82370425       3.92543996  T        3       0.86633004       0.03274389      -1.07052273
Fe      10.24377736       0.73676064       4.03870807  T        3      -0.44430981      -0.78406970       0.11024247
Fe       4.16520760       4.70295571       3.95677851  T        3      -0.80059218      -0.39459929       0.57526427
Fe       8.34082628       4.78974208       3.88326854  T        3       1.50728368       1.18648663       0.47899405
Fe      11.98802120       4.77101238       4.03762286  T        3       1.07211329       1.03649640       1.73948576
Fe       6.39995954       8.45821928       4.08539874  T        3       2.26059553      -0.60379401       1.75409432
Fe      10.00028756       8.45149062       3.94107577  T        3       0.64497545      -0.01354939      -0.01935226
Fe      14.29941230       7.87486084       4.02877753  T        3       1.03996191      -0.43640203       1.32876184
Fe      12.02962139       2.07363604       4.42149329  T        2       0.47774666      -1.74420080      -0.52354887
Fe       4.16531944       2.12245982       4.57010975  T        2      -1.40918907      -1.76277610       1.64985766
Fe       8.22934834       2.30183145       4.57560458  T        2       1.21500674       0.89290298       0.72769250
Fe      14.31313245       5.47411885       4.66999364  T        2       1.34991803       0.84822810       2.07493602
Fe       6.11396466       5.98606332       4.55326360  T        2      -1.47017830      -0.88613535       1.01208798
Fe       9.99282402       6.09002852       4.53867603  T        2      -0.15376942       1.06465320       0.39703055
Fe      16.25015061       8.96774697       4.65542249  T        2      -0.22504077      -0.59671687       0.87958981
Fe       8.30334342      10.01778088       4.49897692  T        2       2.98403108       1.91409681       0.48997308
Fe      12.28882351       9.01899478       4.43285735  T        2       1.69402729       0.48328329      -2.59835177
Fe      17.92534008      10.23060330       5.13063074  T        1       1.08402074      -0.25230630       0.57859125
Fe      10.57532712      10.40843100       5.16670546  T        1       1.02625229       1.42464440      -0.39907750
Fe      14.29269791       9.95561638       5.25497749  T        1       1.45335084      -0.07290469       2.27420237
Fe       2.07964089       3.35572923       5.40355904  T        1       0.90478845      -0.25898993       3.06420886
Fe       6.26288507       4.13564929       5.42774581  T        1       0.92843159       1.54603411       2.03080353
Fe      10.03623109       3.85431963       5.13942252  T        1       1.99575153      -1.01965472       1.21895217
Fe       4.12387409       6.81604045       5.34479601  T        1       5.13916514       1.52428497       1.60668163
Fe       8.22947164       7.57096996       5.15804241  T        1       1.87767262      -1.25312187      -1.27052867
Fe      12.47401046       6.83902199       5.28721301  T        1       0.97165276       2.14305929       0.19789637
N        7.56474109       3.26759862       6.35241798  T        0       0.52704881       0.54405469       0.09939096
N        8.83819146       3.33514110       6.36339040  T        0      -0.96521438      -0.19107162       0.50371213
74
Lattice="12.176378772032349 0.0 0.0 6.088189386016174 10.545053342681582 0.0 0.0 0.0 20.0" Properties=species:S:1:pos:R:3:move_mask:L:1:tags:I:1:momenta:R:3 pbc="T T F"
Fe      12.17637877       2.34334519       0.00000000  F        8       0.00000000       0.00000000       0.00000000
Fe       4.05879292       2.34334519       0.00000000  F        8       0.00000000       0.00000000       0.00000000
Fe       8.11758585       2.34334519       0.00000000  F        8       0.00000000       0.00000000       0.00000000
Fe      14.20577523       5.85836297       0.00000000  F        8       0.00000000       0.00000000       0.00000000
Fe       6.08818939       5.85836297       0.00000000  F        8       0.00000000       0.00000000       0.00000000
Fe      10.14698231       5.85836297       0.00000000  F        8       0.00000000       0.00000000       0.00000000
Fe      16.23517169       9.37338075       0.00000000  F        8       0.00000000       0.00000000       0.00000000
Fe       8.11758585       9.37338075       0.00000000  F        8       0.00000000       0.00000000       0.00000000
Fe      12.17637877       9.37338075       0.00000000  F        8       0.00000000       0.00000000       0.00000000
Fe       0.00000000       0.00000000       0.82849764  F        7       0.00000000       0.00000000       0.00000000
Fe       4.05879292       0.00000000       0.82849764  F        7       0.00000000       0.00000000       0.00000000
Fe       8.11758585       0.00000000       0.82849764  F        7       0.00000000       0.00000000       0.00000000
Fe       2.02939646       3.51501778       0.82849764  F        7       0.00000000       0.00000000       0.00000000
Fe       6.08818939       3.51501778       0.82849764  F        7       0.00000000       0.00000000       0.00000000
Fe      10.14698231       3.51501778       0.82849764  F        7       0.00000000       0.00000000       0.00000000
Fe       4.05879292       7.03003556       0.82849764  F        7       0.00000000       0.00000000       0.00000000
Fe       8.11758585       7.03003556       0.82849764  F        7       0.00000000       0.00000000       0.00000000
Fe      12.17637877       7.03003556       0.82849764  F        7       0.00000000       0.00000000       0.00000000
Fe       2.02939646       1.17167259       1.65699527  F        6       0.00000000       0.00000000       0.00000000
Fe       6.08818939       1.17167259       1.65699527  F        6       0.00000000       0.00000000       0.00000000
Fe      10.14698231       1.17167259       1.65699527  F        6       0.00000000       0.00000000       0.00000000
Fe       4.05879292       4.68669037       1.65699527  F        6       0.00000000       0.00000000       0.00000000
Fe       8.11758585       4.68669037       1.65699527  F        6       0.00000000       0.00000000       0.00000000
Fe      12.17637877       4.68669037       1.65699527  F        6       0.00000000       0.00000000       0.00000000
Fe       6.08818939       8.20170816       1.65699527  F        6       0.00000000       0.00000000       0.00000000
Fe      10.14698231       8.20170816       1.65699527  F        6       0.00000000       0.00000000       0.00000000
Fe      14.20577523       8.20170816       1.65699527  F        6       0.00000000       0.00000000       0.00000000
Fe      12.38276452       2.52010563       2.17887444  T        5       0.45687896       0.84018520      -0.08883976
Fe       3.92091308       2.56477410       2.28618572  T        5      -0.14714241       1.51699432       1.06171108
Fe       8.15278354       2.35961182       2.20797995  T        5       0.19683668      -0.46592751       1.08543614
Fe      14.37438761       5.95108440       2.08314468  T        5       2.07803733      -0.13161051      -1.59780509
Fe       6.03717457       5.49066177       2.29303075  T        5      -0.47974941      -1.59424689       0.86218114
Fe      10.19185630       5.34805120       2.19266536  T        5       0.70707253      -1.01657644       0.51476189
Fe      16.39171036       9.41434454       2.37514354  T        5       1.35978081      -0.34767687       0.54751231
Fe       7.93385656       9.33449035       2.33772010  T        5      -1.56058428       0.27892501       1.17397165
Fe      11.96179287       9.24365924       2.21097904  T        5      -1.88469164      -2.11523957      -1.23573696
Fe       0.20584128       0.24908018       2.99707208  T        4       0.60453981      -0.12368841      -1.15214822
Fe       3.99339940       0.28361491       2.95240600  T        4       0.55757999       0.16472664      -1.07449775
Fe       8.11253529       0.15390537       3.01634701  T        4      -0.33187617      -1.05482208       1.31825118
Fe      14.14005357       3.95951200       3.20715966  T        4      -1.65595164      -0.06642007       0.72784501
Fe       6.09119181       3.06137928       3.24029582  T        4      -0.08670652      -0.33593678       2.44159230
Fe      10.03334860       3.39723967       3.13521874  T        4      -0.12386756       0.24522180      -2.33344018
Fe       4.23533635       7.01021446       3.05323800  T        4      -1.17884779      -0.44247480       0.17421397
Fe       7.97760041       6.78588974       2.94247147  T        4      -1.59699449      -0.04048577      -0.89025354
Fe      11.99164522       6.81722659       3.01946748  T        4       1.40378784      -3.07365306       0.05383938
Fe       2.01760931       1.64103772       3.95786801  T        3       0.26418189       1.50051083      -0.00094837
Fe       6.03487599       0.82373727       3.92450389  T        3       0.90865206       0.04255872      -1.06176833
Fe      10.24336548       0.73608486       4.03879785  T        3      -0.49370402      -0.75542951       0.09442505
Fe       4.16452282       4.70260105       3.95728836  T        3      -0.75937577      -0.41335263       0.58618291
Fe       8.34211590       4.79077176       3.88369969  T        3       1.43071469       1.15901895       0.50315341
Fe      11.98896695       4.77191418       4.03915159  T        3       1.08216439       1.01757585       1.74301582
Fe       6.40194732       8.45767505       4.08692431  T        3       2.26737976      -0.63566458       1.72124058
Fe      10.00084824       8.45147224       3.94105533  T        3       0.63236346      -0.02821380      -0.02720009
Fe      14.30031584       7.87447392       4.02993523  T        3       1.01828932      -0.44498619       1.30847204
Fe      12.03003370       2.07213036       4.42104124  T        2       0.46143484      -1.68573730      -0.50612047
Fe       4.16408623       2.12092587       4.57155648  T        2      -1.40002565      -1.73149053       1.64577788
Fe       8.23040465       2.30260816       4.57624297  T        2       1.19139449       0.87628881       0.72610183
Fe      14.31430819       5.47488885       4.67183049  T        2       1.32837171       0.90529882       2.10901346
Fe       6.11267887       5.98530698       4.55414254  T        2      -1.45869741      -0.83671940       0.99003657
Fe       9.99269635       6.09097988       4.53901340  T        2      -0.13702428       1.10221861       0.37155113
Fe      16.24994174       8.96721750       4.65619283  T        2      -0.25050810      -0.60921634       0.87522750
Fe       8.30595569      10.01945078       4.49940819  T        2       2.96660927       1.88990720       0.49246698
Fe      12.29031252       9.01941441       4.43058308  T        2       1.69789921       0.47267856      -2.58237665
Fe      17.92630401      10.23039313       5.13115987  T        1       1.11161798      -0.22653742       0.62633428
Fe      10.57622087      10.40967131       5.16636018  T        1       1.00976411       1.40069410      -0.38745425
Fe      14.29397224       9.95555267       5.25695042  T        1       1.44958485      -0.07228306       2.22011767
Fe       2.08043505       3.35550377       5.40623651  T        1       0.90431979      -0.25446878       3.03464506
Fe       6.26369974       4.13698246       5.42951136  T        1       0.92689885       1.49093095       1.99094930
Fe      10.03799373       3.85343162       5.14053207  T        1       2.01919527      -1.00346015       1.30788336
Fe       4.12837435       6.81737140       5.34619467  T        1       5.11236092       1.50759414       1.57951094
Fe       8.23111671       7.56987242       5.15691869  T        1       1.86970802      -1.24704087      -1.28906599
Fe      12.47486742       6.84089864       5.28737131  T        1       0.98044788       2.13192502       0.16283441
N        7.56667802       3.26951895       6.35276487  T        0       0.57554224       0.55290300       0.09932860
N        8.83471151       3.33443968       6.36513394  T        0      -1.01824980      -0.20924883       0.49230336
74
Lattice="12.176378772032349 0.0 0.0 6.088189386016174 10.545053342681582 0.0 0.0 0.0 20.0" Properties=species:S:1:pos:R:3:move_mask:L:1:tags:I:1:momenta:R:3 pbc="T T F"
Fe      12.17637877       2.34334519       0.00000000  F        8       0.00000000       0.00000000       0.00000000
Fe       4.05879292       2.34334519       0.00000000  F        8       0.00000000       0.00000000       0.00000000
Fe       8.11758585       2.34334519       0.00000000  F        8       0.00000000       0.00000000       0.00000000
Fe      14.20577523       5.85836297       0.00000000  F        8       0.00000000       0.00000000       0.00000000
Fe       6.08818939       5.85836297       0.00000000  F        8       0.00000000       0.00000000       0.00000000
Fe      10.14698231       5.85836297       0.00000000  F        8       0.00000000       0.00000000       0.00000000
Fe      16.23517169       9.37338075       0.00000000  F        8       0.00000000       0.00000000       0.00000000
Fe       8.11758585       9.37338075       0.00000000  F        8       0.00000000       0.00000000       0.00000000
Fe      12.17637877       9.37338075       0.00000000  F        8       0.00000000       0.00000000       0.00000000
Fe       0.00000000       0.00000000       0.82849764  F        7       0.00000000       0.00000000       0.00000000
Fe       4.05879292       0.00000000       0.82849764  F        7       0.00000000       0.00000000       0.00000000
Fe       8.11758585       0.00000000       0.82849764  F        7       0.00000000       0.00000000       0.00000000
Fe       2.02939646       3.51501778       0.82849764  F        7       0.00000000       0.00000000       0.00000000
Fe       6.08818939       3.51501778       0.82849764  F        7       0.00000000       0.00000000       0.00000000
Fe      10.14698231       3.51501778       0.82849764  F        7       0.00000000       0.00000000       0.00000000
Fe       4.05879292       7.03003556       0.82849764  F        7       0.00000000       0.00000000       0.00000000
Fe       8.11758585       7.03003556       0.82849764  F        7       0.00000000       0.00000000       0.00000000
Fe      12.17637877       7.03003556       0.82849764  F        7       0.00000000       0.00000000       0.00000000
Fe       2.02939646       1.17167259       1.65699527  F        6       0.00000000       0.00000000       0.00000000
Fe       6.08818939       1.17167259       1.65699527  F        6       0.00000000       0.00000000       0.00000000
Fe      10.14698231       1.17167259       1.65699527  F        6       0.00000000       0.00000000       0.00000000
Fe       4.05879292       4.68669037       1.65699527  F        6       0.00000000       0.00000000       0.00000000
Fe       8.11758585       4.68669037       1.65699527  F        6       0.00000000       0.00000000       0.00000000
Fe      12.17637877       4.68669037       1.65699527  F        6       0.00000000       0.00000000       0.00000000
Fe       6.08818939       8.20170816       1.65699527  F        6       0.00000000       0.00000000       0.00000000
Fe      10.14698231       8.20170816       1.65699527  F        6       0.00000000       0.00000000       0.00000000
Fe      14.20577523       8.20170816       1.65699527  F        6       0.00000000       0.00000000       0.00000000
Fe      12.38316138       2.52085267       2.17880032  T        5       0.44199622       0.85201784      -0.07901670
Fe       3.92077945       2.56611995       2.28712339  T        5      -0.15554854       1.53168812       1.06243509
Fe       8.15295229       2.35919689       2.20893622  T        5       0.18535107      -0.47406495       1.08075747
Fe      14.37621718       5.95097849       2.08173918  T        5       2.06627059      -0.10830520      -1.58575380
Fe       6.03675668       5.48925395       2.29379340  T        5      -0.46678475      -1.59484528       0.86544736
Fe      10.19248040       5.34720177       2.19313633  T        5       0.70661766      -0.90689932       0.55221246
Fe      16.39290816       9.41403430       2.37562079  T        5       1.35354673      -0.35516971       0.53351752
Fe       7.93249646       9.33472988       2.33875027  T        5      -1.52008633       0.26360171       1.15955908
Fe      11.96013714       9.24179825       2.20988901  T        5      -1.86581785      -2.10032622      -1.23349919
Fe       0.20637258       0.24896512       2.99605570  T        4       0.59886536      -0.13702120      -1.14994742
Fe       3.99387945       0.28375240       2.95146725  T        4       0.52974580       0.14668754      -1.05185624
Fe       8.11223787       0.15295848       3.01752607  T        4      -0.34192952      -1.09037655       1.35268737
Fe      14.13857765       3.95943201       3.20778211  T        4      -1.68753620      -0.11459087       0.68246978
Fe       6.09111760       3.06109765       3.24246688  T        4      -0.08140757      -0.30190787       2.47659624
Fe      10.03325684       3.39740437       3.13312968  T        4      -0.08390456       0.12751671      -2.39814087
Fe       4.23429937       7.00982563       3.05339843  T        4      -1.17017571      -0.43834182       0.18924095
Fe       7.97619386       6.78587650       2.94169620  T        4      -1.58928569       0.01062895      -0.86591866
Fe      11.99288656       6.81451744       3.01952673  T        4       1.40825328      -3.06305962       0.08042784
Fe       2.01784973       1.64235890       3.95786070  T        3       0.28049225       1.49229621      -0.01568902
Fe       6.03570122       0.82377940       3.92356514  T        3       0.96092923       0.05303908      -1.06472982
Fe      10.24290560       0.73542674       4.03887480  T        3      -0.54810752      -0.73537752       0.07998630
Fe       4.16386673       4.70222584       3.95781356  T        3      -0.72677605      -0.43677652       0.60363442
Fe       8.34335257       4.79178862       3.88415698  T        3       1.37066272       1.14430725       0.53290273
Fe      11.98993203       4.77280917       4.04070059  T        3       1.10403373       1.00960766       1.76615635
Fe       6.40396317       8.45709685       4.08843802  T        3       2.29912435      -0.67404312       1.70779881
Fe      10.00140415       8.45144080       3.94102775  T        3       0.62700607      -0.04299496      -0.03533123
Fe      14.30121034       7.87407511       4.03108796  T        3       1.00796346      -0.45852304       1.30278708
Fe      12.03043617       2.07065945       4.42059961  T        2       0.45014589      -1.64610533      -0.49414272
Fe       4.16284734       2.11940244       4.57301579  T        2      -1.40644133      -1.71940534       1.66009399
Fe       8.23145204       2.30337876       4.57688670  T        2       1.18135026       0.86917293       0.73167682
Fe      14.31547802       5.47571738       4.67371764  T        2       1.32161573       0.97140546       2.16590763
Fe       6.11138896       5.98458588       4.55501176  T        2      -1.46323595      -0.79649938       0.97886505
Fe       9.99258207       6.09197476       4.53933210  T        2      -0.12173120       1.15141621       0.35032321
Fe      16.24970827       8.96667125       4.65696793  T        2      -0.27826972      -0.62813400       0.88065329
Fe       8.30858171      10.02111799       4.49984649  T        2       2.98210985       1.88676901       0.50048546
Fe      12.29182157       9.01982942       4.42829751  T        2       1.72067800       0.46748255      -2.59518088
Fe      17.92730293      10.23020329       5.13173669  T        1       1.15125430      -0.20343874       0.68018580
Fe      10.57711011      10.41090428       5.16602131  T        1       1.00464844       1.39225083      -0.38017112
Fe      14.29525752       9.95548875       5.25889767  T        1       1.46206631      -0.07254721       2.19083701
Fe       2.08123769       3.35527990       5.40891746  T        1       0.91397576      -0.25250145       3.03814796
Fe       6.26452175       4.13828190       5.43126134  T        1       0.93474942       1.45252255       1.97303333
Fe      10.03979648       3.85254777       5.14173192  T        1       2.06453488      -0.99893331       1.40994970
Fe       4.13290125       6.81870249       5.34758503  T        1       5.14260988       1.50774655       1.57007672
Fe       8.23277308       7.56876800       5.15576624  T        1       1.88248342      -1.25484534      -1.32154287
Fe      12.47574169       6.84278644       5.28750053  T        1       1.00010085       2.14458324       0.12981834
N        7.56879287       3.27149102       6.35311724  T        0       0.62166973       0.56742061       0.10142382
N        8.83102305       3.33366800       6.36685618  T        0      -1.07237236      -0.22884866       0.48608139
74
Lattice="12.176378772032349 0.0 0.0 6.088189386016174 10.545053342681582 0.0 0.0 0.0 20.0" Properties=species:S:1:pos:R:3:move_mask:L:1:tags:I:1:momenta:R:3 pbc="T T F"
Fe      12.17637877       2.34334519       0.00000000  F        8       0.00000000       0.00000000       0.00000000
Fe       4.05879292       2.34334519       0.00000000  F        8       0.00000000       0.00000000       0.00000000
Fe       8.11758585       2.34334519       0.00000000  F        8       0.00000000       0.00000000       0.00000000
Fe      14.20577523       5.85836297       0.00000000  F        8       0.00000000       0.00000000       0.00000000
Fe       6.08818939       5.85836297       0.00000000  F        8       0.00000000       0.00000000       0.00000000
Fe      10.14698231       5.85836297       0.00000000  F        8       0.00000000       0.00000000       0.00000000
Fe      16.23517169       9.37338075       0.00000000  F        8       0.00000000       0.00000000       0.00000000
Fe       8.11758585       9.37338075       0.00000000  F        8       0.00000000       0.00000000       0.00000000
Fe      12.17637877       9.37338075       0.00000000  F        8       0.00000000       0.00000000       0.00000000
Fe       0.00000000       0.00000000       0.82849764  F        7       0.00000000       0.00000000       0.00000000
Fe       4.05879292       0.00000000       0.82849764  F        7       0.00000000       0.00000000       0.00000000
Fe       8.11758585       0.00000000       0.82849764  F        7       0.00000000       0.00000000       0.00000000
Fe       2.02939646       3.51501778       0.82849764  F        7       0.00000000       0.00000000       0.00000000
Fe       6.08818939       3.51501778       0.82849764  F        7       0.00000000       0.00000000       0.00000000
Fe      10.14698231       3.51501778       0.82849764  F        7       0.00000000       0.00000000       0.00000000
Fe       4.05879292       7.03003556       0.82849764  F        7       0.00000000       0.00000000       0.00000000
Fe       8.11758585       7.03003556       0.82849764  F        7       0.00000000       0.00000000       0.00000000
Fe      12.17637877       7.03003556       0.82849764  F        7       0.00000000       0.00000000       0.00000000
Fe       2.02939646       1.17167259       1.65699527  F        6       0.00000000       0.00000000       0.00000000
Fe       6.08818939       1.17167259       1.65699527  F        6       0.00000000       0.00000000       0.00000000
Fe      10.14698231       1.17167259       1.65699527  F        6       0.00000000       0.00000000       0.00000000
Fe       4.05879292       4.68669037       1.65699527  F        6       0.00000000       0.00000000       0.00000000
Fe       8.11758585       4.68669037       1.65699527  F        6       0.00000000       0.00000000       0.00000000
Fe      12.17637877       4.68669037       1.65699527  F        6       0.00000000       0.00000000       0.00000000
Fe       6.08818939       8.20170816       1.65699527  F        6       0.00000000       0.00000000       0.00000000
Fe      10.14698231       8.20170816       1.65699527  F        6       0.00000000       0.00000000       0.00000000
Fe      14.20577523       8.20170816       1.65699527  F        6       0.00000000       0.00000000       0.00000000
Fe      12.38353997       2.52160042       2.17873581  T        5       0.42115143       0.85266668      -0.06810332
Fe       3.92064018       2.56746132       2.28804968  T        5      -0.16192682       1.52640837       1.04949216
Fe       8.15310872       2.35878011       2.20987605  T        5       0.17129484      -0.47616977       1.06201000
Fe      14.37801271       5.95089438       2.08036260  T        5       2.02737621      -0.08362120      -1.55258395
Fe       6.03635564       5.48786374       2.29454911  T        5      -0.44753348      -1.57472336       0.85752726
Fe      10.19309600       5.34646012       2.19363417  T        5       0.69681515      -0.78404779       0.58269138
Fe      16.39408505       9.41372142       2.37607956  T        5       1.32971465      -0.35818876       0.51245649
Fe       7.93118969       9.33495281       2.33975445  T        5      -1.45922706       0.24470644       1.12991695
Fe      11.95851945       9.23997439       2.20881496  T        5      -1.82238318      -2.05798359      -1.21530556
Fe       0.20689194       0.24883978       2.99505459  T        4       0.58513412      -0.14873409      -1.13227215
Fe       3.99432879       0.28387227       2.95056060  T        4       0.49478867       0.12670076      -1.01525556
Fe       8.11193541       0.15199239       3.01872019  T        4      -0.34765184      -1.11227075       1.36967245
Fe      14.13709292       3.95931096       3.20835700  T        4      -1.69748690      -0.16088256       0.62883063
Fe       6.09104899       3.06084961       3.24464081  T        4      -0.07507117      -0.26369503       2.47973465
Fe      10.03320140       3.39746338       3.13101140  T        4      -0.04268351       0.00748545      -2.43026873
Fe       4.23328337       7.00944543       3.05357001  T        4      -1.14628641      -0.42851053       0.20188461
Fe       7.97481214       6.78590839       2.94095228  T        4      -1.56105758       0.06188746      -0.83031079
Fe      11.99411589       6.81185270       3.01960859  T        4       1.39460633      -3.01220856       0.10606775
Fe       2.01810141       1.64365584       3.95784049  T        3       0.29328632       1.46470789      -0.03036798
Fe       6.03656187       0.82383032       3.92263591  T        3       1.00116326       0.06314070      -1.05382518
Fe      10.24240387       0.73479470       4.03893817  T        3      -0.59550523      -0.70576485       0.06468972
Fe       4.16324775       4.70183476       3.95834739  T        3      -0.68458427      -0.45486999       0.61346764
Fe       8.34452062       4.79277935       3.88463462  T        3       1.29282391       1.11446302       0.55604869
Fe      11.99090389       4.77368545       4.04225017  T        3       1.11160785       0.98809449       1.76688656
Fe       6.40598095       8.45649250       4.08992051  T        3       2.30114993      -0.70352725       1.67234561
Fe      10.00194828       8.45139681       3.94099335  T        3       0.61368989      -0.05717992      -0.04307815
Fe      14.30208423       7.87366948       4.03222087  T        3       0.98448500      -0.46626890       1.28020509
Fe      12.03082345       2.06924240       4.42017430  T        2       0.43278674      -1.58479487      -0.47545324
Fe       4.16161874       2.11790931       4.57446898  T        2      -1.39470319      -1.68484473       1.65314107
Fe       8.23247723       2.30413305       4.57752664  T        2       1.15620971       0.85043927       0.72685151
Fe      14.31662685       5.47659310       4.67563039  T        2       1.29767842       1.02459143       2.19469396
Fe       6.11011175       5.98390958       4.55585988  T        2      -1.44864672      -0.74542031       0.95475374
Fe       9.99248278       6.09299995       4.53962802  T        2      -0.10462230       1.18558143       0.32443626
Fe      16.24945354       8.96611549       4.65773786  T        2      -0.30222185      -0.63874916       0.87477676
Fe       8.31118756      10.02276097       4.50028625  T        2       2.95905532       1.85917184       0.50215322
Fe      12.29333131       9.02023457       4.42603005  T        2       1.72142540       0.45632506      -2.57454921
Fe      17.92832380      10.23003621       5.13235320  T        1       1.17606580      -0.17760677       0.72493585
Fe      10.57798345      10.41211390       5.16569320  T        1       0.98660382       1.36559920      -0.36791679
Fe      14.29653732       9.95542539       5.26079407  T        1       1.45586152      -0.07195482       2.13295300
Fe       2.08203855       3.35506077       5.41156669  T        1       0.91195960      -0.24695994       3.00162080
Fe       6.26533969       4.13953079       5.43297289  T        1       0.92963515       1.39499221       1.92913259
Fe      10.04161578       3.85167907       5.14300571  T        1       2.08309311      -0.98189830       1.49336540
Fe       4.13739664       6.82001662       5.34894924  T        1       5.10672241       1.48843698       1.54036378
Fe       8.23441937       7.56767090       5.15460015  T        1       1.87094135      -1.24648460      -1.33684091
Fe      12.47662202       6.84466114       5.28759907  T        1       1.00695969       2.12966404       0.09499916
N        7.57102645       3.27348791       6.35347430  T        0       0.65037078       0.57425712       0.10328577
N        8.82721053       3.33283894       6.36853396  T        0      -1.10188211      -0.24477434       0.47331456
74
Lattice="12.176378772032349 0.0 0.0 6.088189386016174 10.545053342681582 0.0 0.0 0.0 20.0" Properties=species:S:1:pos:R:3:move_mask:L:1:tags:I:1:momenta:R:3 pbc="T T F"
Fe      12.17637877       2.34334519       0.00000000  F        8       0.00000000       0.00000000       0.00000000
Fe       4.05879292       2.34334519       0.00000000  F        8       0.00000000       0.00000000       0.00000000
Fe       8.11758585       2.34334519       0.00000000  F        8       0.00000000       0.00000000       0.00000000
Fe      14.20577523       5.85836297       0.00000000  F        8       0.00000000       0.00000000       0.00000000
Fe       6.08818939       5.85836297       0.00000000  F        8       0.00000000       0.00000000       0.00000000
Fe      10.14698231       5.85836297       0.00000000  F        8       0.00000000       0.00000000       0.00000000
Fe      16.23517169       9.37338075       0.00000000  F        8       0.00000000       0.00000000       0.00000000
Fe       8.11758585       9.37338075       0.00000000  F        8       0.00000000       0.00000000       0.00000000
Fe      12.17637877       9.37338075       0.00000000  F        8       0.00000000       0.00000000       0.00000000
Fe       0.00000000       0.00000000       0.82849764  F        7       0.00000000       0.00000000       0.00000000
Fe       4.05879292       0.00000000       0.82849764  F        7       0.00000000       0.00000000       0.00000000
Fe       8.11758585       0.00000000       0.82849764  F        7       0.00000000       0.00000000       0.00000000
Fe       2.02939646       3.51501778       0.82849764  F        7       0.00000000       0.00000000       0.00000000
Fe       6.08818939       3.51501778       0.82849764  F        7       0.00000000       0.00000000       0.00000000
Fe      10.14698231       3.51501778       0.82849764  F        7       0.00000000       0.00000000       0.00000000
Fe       4.05879292       7.03003556       0.82849764  F        7       0.00000000       0.00000000       0.00000000
Fe       8.11758585       7.03003556       0.82849764  F        7       0.00000000       0.00000000       0.00000000
Fe      12.17637877       7.03003556       0.82849764  F        7       0.00000000       0.00000000       0.00000000
Fe       2.02939646       1.17167259       1.65699527  F        6       0.00000000       0.00000000       0.00000000
Fe       6.08818939       1.17167259       1.65699527  F        6       0.00000000       0.00000000       0.00000000
Fe      10.14698231       1.17167259       1.65699527  F        6       0.00000000       0.00000000       0.00000000
Fe       4.05879292       4.68669037       1.65699527  F        6       0.00000000       0.00000000       0.00000000
Fe       8.11758585       4.68669037       1.65699527  F        6       0.00000000       0.00000000       0.00000000
Fe      12.17637877       4.68669037       1.65699527  F        6       0.00000000       0.00000000       0.00000000
Fe       6.08818939       8.20170816       1.65699527  F        6       0.00000000       0.00000000       0.00000000
Fe      10.14698231       8.20170816       1.65699527  F        6       0.00000000       0.00000000       0.00000000
Fe      14.20577523       8.20170816       1.65699527  F        6       0.00000000       0.00000000       0.00000000
Fe      12.38390095       2.52235001       2.17868073  T        5       0.40105406       0.85460482      -0.05738009
Fe       3.92049510       2.56880042       2.28896637  T        5      -0.16848320       1.52365575       1.03860196
Fe       8.15325309       2.35836070       2.21080118  T        5       0.15754115      -0.47916609       1.04524316
Fe      14.37977738       5.95083165       2.07901274  T        5       1.99207280      -0.05942844      -1.52190132
Fe       6.03597078       5.48648863       2.29529927  T        5      -0.42905328      -1.55748012       0.85119483
Fe      10.19370406       5.34582493       2.19415957  T        5       0.68812263      -0.66273291       0.61395354
Fe      16.39524323       9.41340529       2.37652070  T        5       1.30839193      -0.36190663       0.49238774
Fe       7.92993396       9.33515960       2.34073448  T        5      -1.40096962       0.22631664       1.10237520
Fe      11.95693692       9.23818430       2.20775485  T        5      -1.78221789      -2.01946956      -1.19943901
Fe       0.20740012       0.24870393       2.99406736  T        4       0.57227539      -0.16070218      -1.11616361
Fe       3.99474833       0.28397489       2.94968440  T        4       0.46087223       0.10714712      -0.98052385
Fe       8.11162737       0.15100526       3.01993130  T        4      -0.35399066      -1.13624246       1.38883640
Fe      14.13559675       3.95914949       3.20888638  T        4      -1.71041333      -0.20642816       0.57755659
Fe       6.09098577       3.06063458       3.24682146  T        4      -0.06896477      -0.22615374       2.48727231
Fe      10.03318189       3.39741751       3.12886196  T        4      -0.00190220      -0.11161134      -2.46457707
Fe       4.23228641       7.00907313       3.05375295  T        4      -1.12459553      -0.41951682       0.21477497
Fe       7.97345254       6.78598517       2.94023812  T        4      -1.53591895       0.11285758      -0.79652558
Fe      11.99533558       6.80922780       3.01971300  T        4       1.38364132      -2.96655593       0.13164467
Fe       2.01836476       1.64493102       3.95780737  T        3       0.30652719       1.43992641      -0.04505082
Fe       6.03745933       0.82389028       3.92171456  T        3       1.04297536       0.07353032      -1.04477702
Fe      10.24185985       0.73418737       4.03898840  T        3      -0.64338072      -0.67770692       0.04988862
Fe       4.16266455       4.70142705       3.95889085  T        3      -0.64394109      -0.47383275       0.62442026
Fe       8.34562285       4.79374569       3.88513344  T        3       1.21819489       1.08658577       0.58012629
Fe      11.99188409       4.77454433       4.04380336  T        3       1.12097522       0.96806695       1.77108815
Fe       6.40800414       8.45586141       4.09137477  T        3       2.30711990      -0.73364527       1.64031375
Fe      10.00248183       8.45134039       3.94095210  T        3       0.60176062      -0.07123478      -0.05087552
Fe      14.30293916       7.87325631       4.03333609  T        3       0.96289393      -0.47485723       1.26007312
Fe      12.03119617       2.06787645       4.41976468  T        2       0.41614703      -1.52662989      -0.45750722
Fe       4.16039815       2.11644374       4.57591881  T        2      -1.38555375      -1.65339693       1.64932826
Fe       8.23348242       2.30487219       4.57816310  T        2       1.13357780       0.83301349       0.72234119
Fe      14.31775683       5.47751663       4.67757166  T        2       1.27620538       1.07847047       2.22677184
Fe       6.10884504       5.98327687       4.55668837  T        2      -1.43652928      -0.69574392       0.93232029
Fe       9.99239835       6.09405672       4.53990183  T        2      -0.08767443       1.22118333       0.29930993
Fe      16.24917755       8.96554956       4.65850409  T        2      -0.32615692      -0.65013637       0.87057060
Fe       8.31377801      10.02438281       4.50072831  T        2       2.94141103       1.83507662       0.50478793
Fe      12.29484451       9.02063075       4.42377643  T        2       1.72535060       0.44618714      -2.55875198
Fe      17.92936817      10.22989140       5.13300972  T        1       1.20263305      -0.15231941       0.77002875
Fe      10.57884265      10.41330236       5.16537522  T        1       0.97056543       1.34144453      -0.35640468
Fe      14.29781411       9.95536239       5.26264327  T        1       1.45247113      -0.07157480       2.07922804
Fe       2.08283915       3.35484622       5.41418851  T        1       0.91169111      -0.24160213       2.96999275
Fe       6.26615425       4.14073160       5.43464902  T        1       0.92530409       1.34028622       1.88864799
Fe      10.04345453       3.85082349       5.14435437  T        1       2.10495821      -0.96717130       1.57777186
Fe       4.14186899       6.82131628       5.35029001  T        1       5.08046754       1.47198389       1.51372444
Fe       8.23605858       7.56657909       5.15341866  T        1       1.86279887      -1.24044224      -1.35414635
Fe      12.47750998       6.84652627       5.28766736  T        1       1.01560485       2.11876682       0.06067961
N        7.57334632       3.27551158       6.35384038  T        0       0.66928406       0.58165056       0.10637813
N        8.82330842       3.33195426       6.37017001  T        0      -1.12104657      -0.26018794       0.46138389
74
Lattice="12.176378772032349 0.0 0.0 6.088189386016174 10.545053342681582 0.0 0.0 0.0 20.0" Properties=species:S:1:pos:R:3:move_mask:L:1:tags:I:1:momenta:R:3 pbc="T T F"
Fe      12.17637877       2.34334519       0.00000000  F        8       0.00000000       0.00000000       0.00000000
Fe       4.05879292       2.34334519       0.00000000  F        8       0.00000000       0.00000000       0.00000000
Fe       8.11758585       2.34334519       0.00000000  F        8       0.00000000       0.00000000       0.00000000
Fe      14.20577523       5.85836297       0.00000000  F        8       0.00000000       0.00000000       0.00000000
Fe       6.08818939       5.85836297       0.00000000  F        8       0.00000000       0.00000000       0.00000000
Fe      10.14698231       5.85836297       0.00000000  F        8       0.00000000       0.00000000       0.00000000
Fe      16.23517169       9.37338075       0.00000000  F        8       0.00000000       0.00000000       0.00000000
Fe       8.11758585       9.37338075       0.00000000  F        8       0.00000000       0.00000000       0.00000000
Fe      12.17637877       9.37338075       0.00000000  F        8       0.00000000       0.00000000       0.00000000
Fe       0.00000000       0.00000000       0.82849764  F        7       0.00000000       0.00000000       0.00000000
Fe       4.05879292       0.00000000       0.82849764  F        7       0.00000000       0.00000000       0.00000000
Fe       8.11758585       0.00000000       0.82849764  F        7       0.00000000       0.00000000       0.00000000
Fe       2.02939646       3.51501778       0.82849764  F        7       0.00000000       0.00000000       0.00000000
Fe       6.08818939       3.51501778       0.82849764  F        7       0.00000000       0.00000000       0.00000000
Fe      10.14698231       3.51501778       0.82849764  F        7       0.00000000       0.00000000       0.00000000
Fe       4.05879292       7.03003556       0.82849764  F        7       0.00000000       0.00000000       0.00000000
Fe       8.11758585       7.03003556       0.82849764  F        7       0.00000000       0.00000000       0.00000000
Fe      12.17637877       7.03003556       0.82849764  F        7       0.00000000       0.00000000       0.00000000
Fe       2.02939646       1.17167259       1.65699527  F        6       0.00000000       0.00000000       0.00000000
Fe       6.08818939       1.17167259       1.65699527  F        6       0.00000000       0.00000000       0.00000000
Fe      10.14698231       1.17167259       1.65699527  F        6       0.00000000       0.00000000       0.00000000
Fe       4.05879292       4.68669037       1.65699527  F        6       0.00000000       0.00000000       0.00000000
Fe       8.11758585       4.68669037       1.65699527  F        6       0.00000000       0.00000000       0.00000000
Fe      12.17637877       4.68669037       1.65699527  F        6       0.00000000       0.00000000       0.00000000
Fe       6.08818939       8.20170816       1.65699527  F        6       0.00000000       0.00000000       0.00000000
Fe      10.14698231       8.20170816       1.65699527  F        6       0.00000000       0.00000000       0.00000000
Fe      14.20577523       8.20170816       1.65699527  F        6       0.00000000       0.00000000       0.00000000
Fe      12.38424530       2.52310341       2.17863490  T        5       0.38207723       0.85878179      -0.04687296
Fe       3.92034387       2.57014097       2.28987626  T        5      -0.17542639       1.52510554       1.03087988
Fe       8.15338579       2.35793740       2.21171432  T        5       0.14421581      -0.48359495       1.03155569
Fe      14.38151617       5.95078987       2.07768603  T        5       1.96244546      -0.03571094      -1.49528276
Fe       6.03560106       5.48512460       2.29604610  T        5      -0.41175690      -1.54478126       0.84737236
Fe      10.19430620       5.34529457       2.19471393  T        5       0.68126560      -0.54331033       0.64679463
Fe      16.39638612       9.41308494       2.37694552  T        5       1.29095558      -0.36673740       0.47379010
Fe       7.92872581       9.33535084       2.34169320  T        5      -1.34666648       0.20862090       1.07806272
Fe      11.95538506       9.23642275       2.20670551  T        5      -1.74715647      -1.98688744      -1.18717295
Fe       0.20789840       0.24855716       2.99309160  T        4       0.56087892      -0.17314322      -1.10279720
Fe       3.99513933       0.28406070       2.94883616  T        4       0.42839567       0.08808201      -0.94862897
Fe       8.11131284       0.14999408       3.02116273  T        4      -0.36136079      -1.16363703       1.41178368
Fe      14.13408482       3.95894792       3.20937275  T        4      -1.72824573      -0.25159917       0.52912059
Fe       6.09092770       3.06045187       3.24901517  T        4      -0.06314588      -0.18940447       2.50199551
Fe      10.03319805       3.39726709       3.12667695  T        4       0.03857690      -0.23027423      -2.50390941
Fe       4.23130554       7.00870762       3.05394773  T        4      -1.10627014      -0.41179529       0.22819414
Fe       7.97211092       6.78610687       2.93955143  T        4      -1.51548167       0.16383234      -0.76533044
Fe      11.99654930       6.80663543       3.01984011  T        4       1.37685354      -2.92922847       0.15739112
Fe       2.01864050       1.64618823       3.95776125  T        3       0.32059701       1.41945962      -0.05983949
Fe       6.03839614       0.82395964       3.92079846  T        3       1.08765779       0.08432594      -1.03870899
Fe      10.24127236       0.73360281       4.03902591  T        3      -0.69260258      -0.65185985       0.03559232
Fe       4.16211526       4.70100143       3.95944556  T        3      -0.60543154      -0.49425604       0.63722307
Fe       8.34666306       4.79469033       3.88565489  T        3       1.14789225       1.06177660       0.60584844
Fe      11.99287534       4.77538799       4.04536498  T        3       1.13340754       0.95052466       1.78074000
Fe       6.41003847       8.45520224       4.09280532  T        3       2.31960487      -0.76530349       1.61341076
Fe      10.00300659       8.45127153       3.94090387  T        3       0.59184725      -0.08528469      -0.05881133
Fe      14.30377767       7.87283435       4.03443695  T        3       0.94418588      -0.48484385       1.24371628
Fe      12.03155532       2.06655752       4.41936969  T        2       0.40062880      -1.47310889      -0.44075343
Fe       4.15918197       2.11500148       4.57736965  T        2      -1.38049369      -1.62678537       1.65046950
Fe       8.23447085       2.30559807       4.57879702  T        2       1.11463623       0.81774281       0.71889097
Fe      14.31887131       5.47848981       4.67954661  T        2       1.25854162       1.13441067       2.26470731
Fe       6.10758532       5.98268598       4.55749955  T        2      -1.42842614      -0.64808403       0.91252187
Fe       9.99232859       6.09514764       4.54015441  T        2      -0.07092690       1.25968439       0.27518096
Fe      16.24887993       8.96497210       4.65926893  T        2      -0.35050856      -0.66304763       0.86898391
Fe       8.31636062      10.02598831       4.50117402  T        2       2.93237569       1.81643073       0.50895864
Fe      12.29636568       9.02101928       4.42152998  T        2       1.73437804       0.43753110      -2.55057248
Fe      17.93043886      10.22976833       5.13370745  T        1       1.23237071      -0.12766108       0.81646315
Fe      10.57969038      10.41447310       5.16506640  T        1       0.95755951       1.32119151      -0.34599311
Fe      14.29909178       9.95529951       5.26445080  T        1       1.45349484      -0.07148211       2.03178162
Fe       2.08364194       3.35463587       5.41679002  T        1       0.91418110      -0.23667509       2.94644310
Fe       6.26696702       4.14188795       5.43629445  T        1       0.92277210       1.28970895       1.85352617
Fe      10.04531777       3.84997811       5.14578054  T        1       2.13257945      -0.95575151       1.66514750
Fe       4.14633165       6.82260539       5.35161143  T        1       5.06937699       1.45996383       1.49174648
Fe       8.23769547       7.56548934       5.15221862  T        1       1.86009027      -1.23807016      -1.37501504
Fe      12.47840816       6.84838741       5.28770578  T        1       1.02719272       2.11420134       0.02681252
N        7.57571934       3.27756634       6.35422021  T        0       0.67822323       0.59028287       0.11080435
N        8.81934996       3.33101455       6.37176910  T        0      -1.13022897      -0.27543915       0.45087088
74
Lattice="12.176378772032349 0.0 0.0 6.088189386016174 10.545053342681582 0.0 0.0 0.0 20.0" Properties=species:S:1:pos:R:3:move_mask:L:1:tags:I:1:momenta:R:3 pbc="T T F"
Fe      12.17637877       2.34334519       0.00000000  F        8       0.00000000       0.00000000       0.00000000
Fe       4.05879292       2.34334519       0.00000000  F        8       0.00000000       0.00000000       0.00000000
Fe       8.11758585       2.34334519       0.00000000  F        8       0.00000000       0.00000000       0.00000000
Fe      14.20577523       5.85836297       0.00000000  F        8       0.00000000       0.00000000       0.00000000
Fe       6.08818939       5.85836297       0.00000000  F        8       0.00000000       0.00000000       0.00000000
Fe      10.14698231       5.85836297       0.00000000  F        8       0.00000000       0.00000000       0.00000000
Fe      16.23517169       9.37338075       0.00000000  F        8       0.00000000       0.00000000       0.00000000
Fe       8.11758585       9.37338075       0.00000000  F        8       0.00000000       0.00000000       0.00000000
Fe      12.17637877       9.37338075       0.00000000  F        8       0.00000000       0.00000000       0.00000000
Fe       0.00000000       0.00000000       0.82849764  F        7       0.00000000       0.00000000       0.00000000
Fe       4.05879292       0.00000000       0.82849764  F        7       0.00000000       0.00000000       0.00000000
Fe       8.11758585       0.00000000       0.82849764  F        7       0.00000000       0.00000000       0.00000000
Fe       2.02939646       3.51501778       0.82849764  F        7       0.00000000       0.00000000       0.00000000
Fe       6.08818939       3.51501778       0.82849764  F        7       0.00000000       0.00000000       0.00000000
Fe      10.14698231       3.51501778       0.82849764  F        7       0.00000000       0.00000000       0.00000000
Fe       4.05879292       7.03003556       0.82849764  F        7       0.00000000       0.00000000       0.00000000
Fe       8.11758585       7.03003556       0.82849764  F        7       0.00000000       0.00000000       0.00000000
Fe      12.17637877       7.03003556       0.82849764  F        7       0.00000000       0.00000000       0.00000000
Fe       2.02939646       1.17167259       1.65699527  F        6       0.00000000       0.00000000       0.00000000
Fe       6.08818939       1.17167259       1.65699527  F        6       0.00000000       0.00000000       0.00000000
Fe      10.14698231       1.17167259       1.65699527  F        6       0.00000000       0.00000000       0.00000000
Fe       4.05879292       4.68669037       1.65699527  F        6       0.00000000       0.00000000       0.00000000
Fe       8.11758585       4.68669037       1.65699527  F        6       0.00000000       0.00000000       0.00000000
Fe      12.17637877       4.68669037       1.65699527  F        6       0.00000000       0.00000000       0.00000000
Fe       6.08818939       8.20170816       1.65699527  F        6       0.00000000       0.00000000       0.00000000
Fe      10.14698231       8.20170816       1.65699527  F        6       0.00000000       0.00000000       0.00000000
Fe      14.20577523       8.20170816       1.65699527  F        6       0.00000000       0.00000000       0.00000000
Fe      12.38457108       2.52385626       2.17859852  T        5       0.36089309       0.85798368      -0.03612636
Fe       3.92018741       2.57147536       2.29077447  T        5      -0.18131749       1.51791663       1.01760147
Fe       8.15350604       2.35751251       2.21261046  T        5       0.13002684      -0.48540793       1.01217973
Fe      14.38321938       5.95076901       2.07639012  T        5       1.92179695      -0.01203469      -1.45997940
Fe       6.03524859       5.48377918       2.29678551  T        5      -0.39207924      -1.52354283       0.83890186
Fe      10.19489895       5.34487200       2.19529401  T        5       0.67046067      -0.42056647       0.67596060
Fe      16.39750748       9.41276206       2.37735170  T        5       1.26643428      -0.36961957       0.45256983
Fe       7.92757200       9.33552550       2.34262533  T        5      -1.28466792       0.18976313       1.04776384
Fe      11.95387252       9.23469943       2.20567263  T        5      -1.70228219      -1.94331620      -1.16843779
Fe       0.20838386       0.24840025       2.99213313  T        4       0.54615684      -0.18466810      -1.08280239
Fe       3.99549971       0.28412938       2.94802057  T        4       0.39357185       0.06866022      -0.91140110
Fe       8.11099357       0.14896432       3.02240748  T        4      -0.36676121      -1.18481312       1.42675239
Fe      14.13256553       3.95870820       3.20981442  T        4      -1.73651955      -0.29451911       0.47880015
Fe       6.09087502       3.06030238       3.25120979  T        4      -0.05705125      -0.15164307       2.50291828
Fe      10.03324955       3.39701362       3.12447028  T        4       0.07865744      -0.34720376      -2.52739717
Fe       4.23034609       7.00835087       3.05415319  T        4      -1.08188448      -0.40183467       0.24029563
Fe       7.97079448       6.78627253       2.93889578  T        4      -1.48686160       0.21371331      -0.73010360
Fe      11.99775049       6.80409013       3.01998905  T        4       1.36260741      -2.87533892       0.18212671
Fe       2.01892707       1.64742066       3.95770242  T        3       0.33287202       1.39123473      -0.07431509
Fe       6.03936701       0.82403818       3.91989273  T        3       1.12629593       0.09487900      -1.02683555
Fe      10.24064507       0.73304405       4.03905083  T        3      -0.73760844      -0.62258885       0.02142376
Fe       4.16160267       4.70056016       3.96000850  T        3      -0.56374981      -0.51209273       0.64658212
Fe       8.34763618       4.79560798       3.88619606  T        3       1.07187168       1.03094480       0.62824693
Fe      11.99387201       4.77621148       4.04692666  T        3       1.13942866       0.92735961       1.78090000
Fe       6.41207257       8.45451912       4.09420458  T        3       2.31913216      -0.79222580       1.57789420
Fe      10.00351989       8.45119080       3.94084895  T        3       0.57891219      -0.09868901      -0.06643970
Fe      14.30459520       7.87240592       4.03551748  T        3       0.92030591      -0.49220192       1.22056465
Fe      12.03189885       2.06529271       4.41899163  T        2       0.38276789      -1.41152723      -0.42138913
Fe       4.15797686       2.11359047       4.57881363  T        2      -1.36786427      -1.59115773       1.64266889
Fe       8.23543742       2.30630646       4.57942398  T        2       1.08989193       0.79764312       0.71040045
Fe      14.31996423       5.47950631       4.68154381  T        2       1.23399161       1.18316367       2.28963048
Fe       6.10633968       5.98214018       4.55828888  T        2      -1.41225145      -0.59672549       0.88756168
Fe       9.99227394       6.09626612       4.54038448  T        2      -0.05368753       1.29067988       0.24958659
Fe      16.24856278       8.96438662       4.66002823  T        2      -0.37245334      -0.67196433       0.86268711
Fe       8.31892120      10.02756871       4.50162099  T        2       2.90719933       1.78782698       0.51040316
Fe      12.29788649       9.02139815       4.41930290  T        2       1.73394958       0.42662543      -2.52848420
Fe      17.93152967      10.22966750       5.13444174  T        1       1.25505912      -0.10241919       0.85761687
Fe      10.58052214      10.41561964       5.16476837  T        1       0.93945411       1.29359849      -0.33371217
Fe      14.30036344       9.95523702       5.26620688  T        1       1.44669812      -0.07107212       1.97323221
Fe       2.08444256       3.35443111       5.41935637  T        1       0.91174592      -0.23015618       2.90601935
Fe       6.26777273       4.14299367       5.43789998  T        1       0.91426220       1.23211701       1.80795144
Fe      10.04719493       3.84914717       5.14727493  T        1       2.14818872      -0.93950214       1.74190721
Fe       4.15076034       6.82387696       5.35290643  T        1       5.03068161       1.44001419       1.46174610
Fe       8.23932105       7.56440760       5.15100697  T        1       1.84713108      -1.22892449      -1.38797959
Fe      12.47931160       6.85023444       5.28771438  T        1       1.03313809       2.09813489      -0.00701488
N        7.57808901       3.27963932       6.35461522  T        0       0.67063481       0.59525194       0.11562037
N        8.81540494       3.33002817       6.37332287  T        0      -1.11911681      -0.28831673       0.43802412
74
Lattice="12.176378772032349 0.0 0.0 6.088189386016174 10.545053342681582 0.0 0.0 0.0 20.0" Properties=species:S:1:pos:R:3:move_mask:L:1:tags:I:1:momenta:R:3 pbc="T T F"
Fe      12.17637877       2.34334519       0.00000000  F        8       0.00000000       0.00000000       0.00000000
Fe       4.05879292       2.34334519       0.00000000  F        8       0.00000000       0.00000000       0.00000000
Fe       8.11758585       2.34334519       0.00000000  F        8       0.00000000       0.00000000       0.00000000
Fe      14.20577523       5.85836297       0.00000000  F        8       0.00000000       0.00000000       0.00000000
Fe       6.08818939       5.85836297       0.00000000  F        8       0.00000000       0.00000000       0.00000000
Fe      10.14698231       5.85836297       0.00000000  F        8       0.00000000       0.00000000       0.00000000
Fe      16.23517169       9.37338075       0.00000000  F        8       0.00000000       0.00000000       0.00000000
Fe       8.11758585       9.37338075       0.00000000  F        8       0.00000000       0.00000000       0.00000000
Fe      12.17637877       9.37338075       0.00000000  F        8       0.00000000       0.00000000       0.00000000
Fe       0.00000000       0.00000000       0.82849764  F        7       0.00000000       0.00000000       0.00000000
Fe       4.05879292       0.00000000       0.82849764  F        7       0.00000000       0.00000000       0.00000000
Fe       8.11758585       0.00000000       0.82849764  F        7       0.00000000       0.00000000       0.00000000
Fe       2.02939646       3.51501778       0.82849764  F        7       0.00000000       0.00000000       0.00000000
Fe       6.08818939       3.51501778       0.82849764  F        7       0.00000000       0.00000000       0.00000000
Fe      10.14698231       3.51501778       0.82849764  F        7       0.00000000       0.00000000       0.00000000
Fe       4.05879292       7.03003556       0.82849764  F        7       0.00000000       0.00000000       0.00000000
Fe       8.11758585       7.03003556       0.82849764  F        7       0.00000000       0.00000000       0.00000000
Fe      12.17637877       7.03003556       0.82849764  F        7       0.00000000       0.00000000       0.00000000
Fe       2.02939646       1.17167259       1.65699527  F        6       0.00000000       0.00000000       0.00000000
Fe       6.08818939       1.17167259       1.65699527  F        6       0.00000000       0.00000000       0.00000000
Fe      10.14698231       1.17167259       1.65699527  F        6       0.00000000       0.00000000       0.00000000
Fe       4.05879292       4.68669037       1.65699527  F        6       0.00000000       0.00000000       0.00000000
Fe       8.11758585       4.68669037       1.65699527  F        6       0.00000000       0.00000000       0.00000000
Fe      12.17637877       4.68669037       1.65699527  F        6       0.00000000       0.00000000       0.00000000
Fe       6.08818939       8.20170816       1.65699527  F        6       0.00000000       0.00000000       0.00000000
Fe      10.14698231       8.20170816       1.65699527  F        6       0.00000000       0.00000000       0.00000000
Fe      14.20577523       8.20170816       1.65699527  F        6       0.00000000       0.00000000       0.00000000
Fe      12.38488194       2.52461695       2.17857117  T        5       0.34384864       0.86674721      -0.02587163
Fe       3.92002401       2.57281867       2.29167138  T        5      -0.18916087       1.52787570       1.01615475
Fe       8.15361516       2.35708111       2.21349987  T        5       0.11733290      -0.49280725       1.00447503
Fe      14.38490635       5.95076864       2.07511053  T        5       1.90313263       0.01112988      -1.44111012
Fe       6.03490941       5.48243697       2.29752598  T        5      -0.37688192      -1.51980868       0.84008963
Fe      10.19548894       5.34455267       2.19590637  T        5       0.66717780      -0.30303527       0.71258307
Fe      16.39862019       9.41243290       2.37774388  T        5       1.25655503      -0.37678242       0.43663144
Fe       7.92645957       9.33568559       2.34354152  T        5      -1.23742721       0.17316995       1.02956731
Fe      11.95238212       9.23299461       2.20464431  T        5      -1.67692784      -1.92215867      -1.16323530
Fe       0.20886186       0.24823139       2.99118146  T        4       0.53752425      -0.19827548      -1.07473551
Fe       3.99583362       0.28418183       2.94722838  T        4       0.36346174       0.05026685      -0.88469463
Fe       8.11066585       0.14790399       3.02367962  T        4      -0.37634537      -1.21960942       1.45774123
Fe      14.13102149       3.95842837       3.21021738  T        4      -1.76454858      -0.33968007       0.43528191
Fe       6.09082706       3.06018437       3.25343048  T        4      -0.05171765      -0.11585926       2.53243114
Fe      10.03333681       3.39665460       3.12221845  T        4       0.11922261      -0.46694070      -2.57757919
Fe       4.22939703       7.00799876       3.05437163  T        4      -1.07003251      -0.39655408       0.25501475
Fe       7.96948800       6.78648388       2.93826348  T        4      -1.47556124       0.26555517      -0.70360820
Fe      11.99895303       6.80156314       3.02016139  T        4       1.36414398      -2.85418927       0.20865773
Fe       2.01922771       1.64864246       3.95763016  T        3       0.34885003       1.37913185      -0.08957639
Fe       6.04038301       0.82412701       3.91898705  T        3       1.17752957       0.10667986      -1.02668048
Fe      10.23997117       0.73250453       4.03906371  T        3      -0.79037927      -0.60076994       0.00790885
Fe       4.16112076       4.70009807       3.96058617  T        3      -0.52892363      -0.53581836       0.66334599
Fe       8.34855391       4.79650899       3.88676316  T        3       1.00916352       1.01189017       0.65770414
Fe      11.99488537       4.77702391       4.04850660  T        3       1.15827161       0.91453499       1.80173585
Fe       6.41412958       8.45380470       4.09558883  T        3       2.34498280      -0.82751649       1.56089050
Fe      10.00402783       8.45109743       3.94078667  T        3       0.57291154      -0.11296693      -0.07480529
Fe      14.30540115       7.87196607       4.03659011  T        3       0.90711294      -0.50518646       1.21155090
Fe      12.03223055       2.06406749       4.41862633  T        2       0.36924451      -1.36648933      -0.40677207
Fe       4.15676897       2.11219458       4.58026743  T        2      -1.37097513      -1.57386435       1.65383866
Fe       8.23639350       2.30700517       4.58005021  T        2       1.07808578       0.78644548       0.70898270
Fe      14.32104816       5.48057699       4.68358568  T        2       1.22373747       1.24421193       2.34003428
Fe       6.10509402       5.98163332       4.55906527  T        2      -1.41209784      -0.55236255       0.87275328
Fe       9.99223388       6.09742449       4.54059470  T        2      -0.03705751       1.33567043       0.22703199
Fe      16.24822290       8.96378671       4.66079077  T        2      -0.39804286      -0.68816054       0.86636347
Fe       8.32148911      10.02914216       4.50207440  T        2       2.91540866       1.77986622       0.51775249
Fe      12.29942448       9.02177187       4.41706956  T        2       1.75344105       0.42082212      -2.53556636
Fe      17.93265287      10.22958765       5.13522034  T        1       1.29169556      -0.07861397       0.90754302
Fe      10.58134764      10.41675509       5.16447771  T        1       0.93237280       1.28088693      -0.32535608
Fe      14.30164385       9.95517413       5.26793172  T        1       1.45666522      -0.07155158       1.93765857
Fe       2.08525032       3.35422986       5.42191643  T        1       0.91985933      -0.22601347       2.89839443
Fe       6.26857984       4.14406149       5.43948380  T        1       0.91536698       1.18902921       1.78305414
Fe      10.04910732       3.84832076       5.14885338  T        1       2.18803001      -0.93449976       1.83664260
Fe       4.15520611       6.82514567       5.35419005  T        1       5.05002260       1.43675395       1.44882545
Fe       8.24095394       7.56332143       5.14977013  T        1       1.85535213      -1.23392127      -1.41639755
Fe      12.48023068       6.85208866       5.28769341  T        1       1.05087635       2.10628766      -0.04053859
N        7.58043607       3.28175288       6.35503339  T        0       0.65714628       0.60661323       0.12268836
N        8.81147897       3.32898675       6.37484982  T        0      -1.10601245      -0.30359299       0.43050463
74
Lattice="12.176378772032349 0.0 0.0 6.088189386016174 10.545053342681582 0.0 0.0 0.0 20.0" Properties=species:S:1:pos:R:3:move_mask:L:1:tags:I:1:momenta:R:3 pbc="T T F"
Fe      12.17637877       2.34334519       0.00000000  F        8       0.00000000       0.00000000       0.00000000
Fe       4.05879292       2.34334519       0.00000000  F        8       0.00000000       0.00000000       0.00000000
Fe       8.11758585       2.34334519       0.00000000  F        8       0.00000000       0.00000000       0.00000000
Fe      14.20577523       5.85836297       0.00000000  F        8       0.00000000       0.00000000       0.00000000
Fe       6.08818939       5.85836297       0.00000000  F        8       0.00000000       0.00000000       0.00000000
Fe      10.14698231       5.85836297       0.00000000  F        8       0.00000000       0.00000000       0.00000000
Fe      16.23517169       9.37338075       0.00000000  F        8       0.00000000       0.00000000       0.00000000
Fe       8.11758585       9.37338075       0.00000000  F        8       0.00000000       0.00000000       0.00000000
Fe      12.17637877       9.37338075       0.00000000  F        8       0.00000000       0.00000000       0.00000000
Fe       0.00000000       0.00000000       0.82849764  F        7       0.00000000       0.00000000       0.00000000
Fe       4.05879292       0.00000000       0.82849764  F        7       0.00000000       0.00000000       0.00000000
Fe       8.11758585       0.00000000       0.82849764  F        7       0.00000000       0.00000000       0.00000000
Fe       2.02939646       3.51501778       0.82849764  F        7       0.00000000       0.00000000       0.00000000
Fe       6.08818939       3.51501778       0.82849764  F        7       0.00000000       0.00000000       0.00000000
Fe      10.14698231       3.51501778       0.82849764  F        7       0.00000000       0.00000000       0.00000000
Fe       4.05879292       7.03003556       0.82849764  F        7       0.00000000       0.00000000       0.00000000
Fe       8.11758585       7.03003556       0.82849764  F        7       0.00000000       0.00000000       0.00000000
Fe      12.17637877       7.03003556       0.82849764  F        7       0.00000000       0.00000000       0.00000000
Fe       2.02939646       1.17167259       1.65699527  F        6       0.00000000       0.00000000       0.00000000
Fe       6.08818939       1.17167259       1.65699527  F        6       0.00000000       0.00000000       0.00000000
Fe      10.14698231       1.17167259       1.65699527  F        6       0.00000000       0.00000000       0.00000000
Fe       4.05879292       4.68669037       1.65699527  F        6       0.00000000       0.00000000       0.00000000
Fe       8.11758585       4.68669037       1.65699527  F        6       0.00000000       0.00000000       0.00000000
Fe      12.17637877       4.68669037       1.65699527  F        6       0.00000000       0.00000000       0.00000000
Fe       6.08818939       8.20170816       1.65699527  F        6       0.00000000       0.00000000       0.00000000
Fe      10.14698231       8.20170816       1.65699527  F        6       0.00000000       0.00000000       0.00000000
Fe      14.20577523       8.20170816       1.65699527  F        6       0.00000000       0.00000000       0.00000000
Fe      12.38517816       2.52538653       2.17855284  T        5       0.32714382       0.87667420      -0.01561749
Fe       3.91985344       2.57417288       2.29256853  T        5      -0.19725981       1.54005859       1.01643599
Fe       8.15371320       2.35664244       2.21438390  T        5       0.10467872      -0.50107682       0.99830672
Fe      14.38657944       5.95078866       2.07384578  T        5       1.88715928       0.03419859      -1.42395241
Fe       6.03458319       5.48109590       2.29826872  T        5      -0.36208241      -1.51842724       0.84263654
Fe      10.19607688       5.34433698       2.19655210  T        5       0.66472065      -0.18507128       0.75044075
Fe      16.39972598       9.41209684       2.37812259  T        5       1.24863683      -0.38465483       0.42128489
Fe       7.92538727       9.33583124       2.34444307  T        5      -1.19159932       0.15674770       1.01285378
Fe      11.95091184       9.23130578       2.20361889  T        5      -1.65388806      -1.90387510      -1.15991539
Fe       0.20933288       0.24805019       2.99023564  T        4       0.52945538      -0.21230951      -1.06774985
Fe       3.99614142       0.28421813       2.94645860  T        4       0.33378108       0.03198894      -0.85913049
Fe       8.11032911       0.14681105       3.02498118  T        4      -0.38660239      -1.25673634       1.49100463
Fe      14.12945014       3.95810848       3.21058293  T        4      -1.79547187      -0.38472787       0.39327124
Fe       6.09078371       3.06009783       3.25568090  T        4      -0.04651277      -0.08008724       2.56610687
Fe      10.03346004       3.39618922       3.11991945  T        4       0.16001423      -0.58755248      -2.63003934
Fe       4.22845690       7.00765074       3.05460343  T        4      -1.05983239      -0.39190311       0.27015908
Fe       7.96818932       6.78674137       2.93765353  T        4      -1.46669248       0.31789964      -0.67826711
Fe      12.00015894       6.79905095       3.02035744  T        4       1.36797597      -2.83699887       0.23551823
Fe       2.01954297       1.64985557       3.95754426  T        3       0.36543382       1.36920204      -0.10508496
Fe       6.04144598       0.82422653       3.91808008  T        3       1.23084694       0.11894107      -1.02806106
Fe      10.23924963       0.73198337       4.03906479  T        3      -0.84427382      -0.57995356      -0.00533472
Fe       4.16066883       4.69961415       3.96117966  T        3      -0.49492799      -0.56066302       0.68132118
Fe       8.34941790       4.79739451       3.88735726  T        3       0.94835688       0.99413867       0.68836359
Fe      11.99591699       4.77782613       4.05010770  T        3       1.17888618       0.90268919       1.82586437
Fe       6.41621273       8.45305811       4.09696040  T        3       2.37449325      -0.86376463       1.54654000
Fe      10.00453139       8.45099135       3.94071688  T        3       0.56803443      -0.12732151      -0.08336187
Fe      14.30619675       7.87151400       4.03765653  T        3       0.89531676      -0.51908541       1.20445788
Fe      12.03255076       2.06288012       4.41827346  T        2       0.35608773      -1.32342843      -0.39254002
Fe       4.15555634       2.11081175       4.58173355  T        2      -1.37630537      -1.55890864       1.66783964
Fe       8.23734082       2.30769496       4.58067572  T        2       1.06826270       0.77610106       0.70757971
Fe      14.32212479       5.48170302       4.68567524  T        2       1.21541945       1.30659997       2.39385922
Fe       6.10384656       5.98116496       4.55982976  T        2      -1.41395328      -0.50852015       0.85910742
Fe       9.99220852       6.09862430       4.54078531  T        2      -0.02028782       1.38242654       0.20474305
Fe      16.24786002       8.96317164       4.66155783  T        2      -0.42390330      -0.70517555       0.87150795
Fe       8.32406847      10.03071114       4.50253510  T        2       2.92829100       1.77472074       0.52604377
Fe      12.30098227       9.02214113       4.41482626  T        2       1.77591498       0.41582128      -2.54684898
Fe      17.93381021      10.22952870       5.13604405  T        1       1.33030210      -0.05492589       0.95837110
Fe      10.58216829      10.41788110       5.16419394  T        1       0.92691929       1.27007080      -0.31751333
Fe      14.30293524       9.95511069       5.26962790  T        1       1.46918645      -0.07221985       1.90504221
Fe       2.08606661       3.35403207       5.42447361  T        1       0.92959094      -0.22190944       2.89465895
Fe       6.26938885       4.14509295       5.44104804  T        1       0.91705216       1.14767995       1.76058940
Fe      10.05105799       3.84749727       5.15051759  T        1       2.23134714      -0.93134803       1.93325760
Fe       4.15967636       6.82641361       5.35546439  T        1       5.07777559       1.43587044       1.43833221
Fe       8.24259675       7.56222906       5.14850627  T        1       1.86654640      -1.24093996      -1.44686783
Fe      12.48116697       6.85395318       5.28764281  T        1       1.07039694       2.11796692      -0.07411598
N        7.58271473       3.28390933       6.35547883  T        0       0.63031060       0.61865192       0.13089938
N        8.80761961       3.32789114       6.37635323  T        0      -1.07906401      -0.31865587       0.42395936
74
Lattice="12.176378772032349 0.0 0.0 6.088189386016174 10.545053342681582 0.0 0.0 0.0 20.0" Properties=species:S:1:pos:R:3:move_mask:L:1:tags:I:1:momenta:R:3 pbc="T T F"
Fe      12.17637877       2.34334519       0.00000000  F        8       0.00000000       0.00000000       0.00000000
Fe       4.05879292       2.34334519       0.00000000  F        8       0.00000000       0.00000000       0.00000000
Fe       8.11758585       2.34334519       0.00000000  F        8       0.00000000       0.00000000       0.00000000
Fe      14.20577523       5.85836297       0.00000000  F        8       0.00000000       0.00000000       0.00000000
Fe       6.08818939       5.85836297       0.00000000  F        8       0.00000000       0.00000000       0.00000000
Fe      10.14698231       5.85836297       0.00000000  F        8       0.00000000       0.00000000       0.00000000
Fe      16.23517169       9.37338075       0.00000000  F        8       0.00000000       0.00000000       0.00000000
Fe       8.11758585       9.37338075       0.00000000  F        8       0.00000000       0.00000000       0.00000000
Fe      12.17637877       9.37338075       0.00000000  F        8       0.00000000       0.00000000       0.00000000
Fe       0.00000000       0.00000000       0.82849764  F        7       0.00000000       0.00000000       0.00000000
Fe       4.05879292       0.00000000       0.82849764  F        7       0.00000000       0.00000000       0.00000000
Fe       8.11758585       0.00000000       0.82849764  F        7       0.00000000       0.00000000       0.00000000
Fe       2.02939646       3.51501778       0.82849764  F        7       0.00000000       0.00000000       0.00000000
Fe       6.08818939       3.51501778       0.82849764  F        7       0.00000000       0.00000000       0.00000000
Fe      10.14698231       3.51501778       0.82849764  F        7       0.00000000       0.00000000       0.00000000
Fe       4.05879292       7.03003556       0.82849764  F        7       0.00000000       0.00000000       0.00000000
Fe       8.11758585       7.03003556       0.82849764  F        7       0.00000000       0.00000000       0.00000000
Fe      12.17637877       7.03003556       0.82849764  F        7       0.00000000       0.00000000       0.00000000
Fe       2.02939646       1.17167259       1.65699527  F        6       0.00000000       0.00000000       0.00000000
Fe       6.08818939       1.17167259       1.65699527  F        6       0.00000000       0.00000000       0.00000000
Fe      10.14698231       1.17167259       1.65699527  F        6       0.00000000       0.00000000       0.00000000
Fe       4.05879292       4.68669037       1.65699527  F        6       0.00000000       0.00000000       0.00000000
Fe       8.11758585       4.68669037       1.65699527  F        6       0.00000000       0.00000000       0.00000000
Fe      12.17637877       4.68669037       1.65699527  F        6       0.00000000       0.00000000       0.00000000
Fe       6.08818939       8.20170816       1.65699527  F        6       0.00000000       0.00000000       0.00000000
Fe      10.14698231       8.20170816       1.65699527  F        6       0.00000000       0.00000000       0.00000000
Fe      14.20577523       8.20170816       1.65699527  F        6       0.00000000       0.00000000       0.00000000
Fe      12.38546191       2.52617116       2.17854348  T        5       0.31289438       0.89360206      -0.00543550
Fe       3.91967430       2.57554896       2.29347336  T        5      -0.20694625       1.56471349       1.02519647
Fe       8.15380074       2.35619278       2.21526971  T        5       0.09271625      -0.51356825       1.00027884
Fe      14.38825199       5.95082927       2.07258609  T        5       1.88634608       0.05746245      -1.41789038
Fe       6.03426749       5.47974504       2.29901984  T        5      -0.35003720      -1.52946996       0.85214443
Fe      10.19666738       5.34422456       2.19723678  T        5       0.66748263      -0.06758030       0.79463448
Fe      16.40083383       9.41175097       2.37849075  T        5       1.25094271      -0.39581511       0.40928151
Fe       7.92434705       9.33596348       2.34533715  T        5      -1.15494697       0.14148830       1.00429505
Fe      11.94945004       9.22961934       2.20258796  T        5      -1.64406139      -1.90104080      -1.16616645
Fe       0.20980050       0.24785500       2.98928851  T        4       0.52543550      -0.22822146      -1.06889181
Fe       3.99642536       0.28423854       2.94570528  T        4       0.30666025       0.01399072      -0.84033057
Fe       8.10998047       0.14567600       3.02632294  T        4      -0.40013061      -1.30465696       1.53653235
Fe      14.12783840       3.95774630       3.21091459  T        4      -1.84128902      -0.43232204       0.35528018
Fe       6.09074460       3.06004238       3.25797979  T        4      -0.04173224      -0.04474964       2.62107938
Fe      10.03362049       3.39561296       3.11755580  T        4       0.20221351      -0.71326159      -2.70235034
Fe       4.22751811       7.00730398       3.05485058  T        4      -1.05828240      -0.39047035       0.28756568
Fe       7.96688778       6.78704746       2.93706102  T        4      -1.46996056       0.37300395      -0.65851010
Fe      12.00137823       6.79653358       3.02057893  T        4       1.38319522      -2.84252948       0.26434847
Fe       2.01987557       1.65106984       3.95744386  T        3       0.38509483       1.37050096      -0.12158760
Fe       6.04256510       0.82433787       3.91716446  T        3       1.29456907       0.13249338      -1.03780221
Fe      10.23847440       0.73147636       4.03905425  T        3      -0.90504314      -0.56393210      -0.01837416
Fe       4.16024333       4.69910410       3.96179405  T        3      -0.46496007      -0.59042515       0.70508429
Fe       8.35023520       4.79827144       3.88798352  T        3       0.89559247       0.98422107       0.72487919
Fe      11.99697535       4.77862424       4.05174358  T        3       1.20915996       0.89776793       1.86548281
Fe       6.41833918       8.45227338       4.09833061  T        3       2.42350133      -0.90679183       1.54506742
Fe      10.00503487       8.45087171       3.94063888  T        3       0.56804416      -0.14263555      -0.09269402
Fe      14.30698841       7.87104582       4.03872543  T        3       0.89082681      -0.53738679       1.20725664
Fe      12.03286184       2.06172126       4.41793042  T        2       0.34561638      -1.29100407      -0.38125651
Fe       4.15432899       2.10943087       4.58322425  T        2      -1.39300277      -1.55658984       1.69578421
Fe       8.23828736       2.30838107       4.58130464  T        2       1.06748752       0.77173475       0.71088833
Fe      14.32320290       5.48289338       4.68782961  T        2       1.21708394       1.37915859       2.46713413
Fe       6.10258730       5.98073179       4.56058833  T        2      -1.42719149      -0.46845006       0.85228077
Fe       9.99219791       6.09987531       4.54095768  T        2      -0.00345745       1.44023990       0.18400046
Fe      16.24747138       8.96253654       4.66233582  T        2      -0.45290724      -0.72772589       0.88391954
Fe       8.32668051      10.03228846       4.50300700  T        2       2.96531851       1.78414944       0.53879636
Fe      12.30257290       9.02250906       4.41255440  T        2       1.81322646       0.41437454      -2.57927328
Fe      17.93501129      10.22949028       5.13691938  T        1       1.37981061      -0.03165162       1.01659113
Fe      10.58299092      10.41900673       5.16391480  T        1       0.92923991       1.26954524      -0.31227112
Fe      14.30424849       9.95504610       5.27130906  T        1       1.49405585      -0.07355705       1.88792881
Fe       2.08689833       3.35383645       5.42704820  T        1       0.94714395      -0.21929605       2.91399480
Fe       6.27020563       4.14609615       5.44260505  T        1       0.92541403       1.11556405       1.75216948
Fe      10.05306315       3.84666963       5.15228074  T        1       2.29309418      -0.93620526       2.04480690
Fe       4.16420821       6.82769125       5.35673998  T        1       5.14771971       1.44689500       1.43978930
Fe       8.24426303       7.56112144       5.14720506  T        1       1.89313213      -1.25823445      -1.48907225
Fe      12.48212833       6.85584349       5.28756201  T        1       1.09886394       2.14726708      -0.10833178
N        7.58489123       3.28612564       6.35595861  T        0       0.59364108       0.63555572       0.14109765
N        8.80385192       3.32673443       6.37784646  T        0      -1.04477746      -0.33572174       0.42125821
74
Lattice="12.176378772032349 0.0 0.0 6.088189386016174 10.545053342681582 0.0 0.0 0.0 20.0" Properties=species:S:1:pos:R:3:move_mask:L:1:tags:I:1:momenta:R:3 pbc="T T F"
Fe      12.17637877       2.34334519       0.00000000  F        8       0.00000000       0.00000000       0.00000000
Fe       4.05879292       2.34334519       0.00000000  F        8       0.00000000       0.00000000       0.00000000
Fe       8.11758585       2.34334519       0.00000000  F        8       0.00000000       0.00000000       0.00000000
Fe      14.20577523       5.85836297       0.00000000  F        8       0.00000000       0.00000000       0.00000000
Fe       6.08818939       5.85836297       0.00000000  F        8       0.00000000       0.00000000       0.00000000
Fe      10.14698231       5.85836297       0.00000000  F        8       0.00000000       0.00000000       0.00000000
Fe      16.23517169       9.37338075       0.00000000  F        8       0.00000000       0.00000000       0.00000000
Fe       8.11758585       9.37338075       0.00000000  F        8       0.00000000       0.00000000       0.00000000
Fe      12.17637877       9.37338075       0.00000000  F        8       0.00000000       0.00000000       0.00000000
Fe       0.00000000       0.00000000       0.82849764  F        7       0.00000000       0.00000000       0.00000000
Fe       4.05879292       0.00000000       0.82849764  F        7       0.00000000       0.00000000       0.00000000
Fe       8.11758585       0.00000000       0.82849764  F        7       0.00000000       0.00000000       0.00000000
Fe       2.02939646       3.51501778       0.82849764  F        7       0.00000000       0.00000000       0.00000000
Fe       6.08818939       3.51501778       0.82849764  F        7       0.00000000       0.00000000       0.00000000
Fe      10.14698231       3.51501778       0.82849764  F        7       0.00000000       0.00000000       0.00000000
Fe       4.05879292       7.03003556       0.82849764  F        7       0.00000000       0.00000000       0.00000000
Fe       8.11758585       7.03003556       0.82849764  F        7       0.00000000       0.00000000       0.00000000
Fe      12.17637877       7.03003556       0.82849764  F        7       0.00000000       0.00000000       0.00000000
Fe       2.02939646       1.17167259       1.65699527  F        6       0.00000000       0.00000000       0.00000000
Fe       6.08818939       1.17167259       1.65699527  F        6       0.00000000       0.00000000       0.00000000
Fe      10.14698231       1.17167259       1.65699527  F        6       0.00000000       0.00000000       0.00000000
Fe       4.05879292       4.68669037       1.65699527  F        6       0.00000000       0.00000000       0.00000000
Fe       8.11758585       4.68669037       1.65699527  F        6       0.00000000       0.00000000       0.00000000
Fe      12.17637877       4.68669037       1.65699527  F        6       0.00000000       0.00000000       0.00000000
Fe       6.08818939       8.20170816       1.65699527  F        6       0.00000000       0.00000000       0.00000000
Fe      10.14698231       8.20170816       1.65699527  F        6       0.00000000       0.00000000       0.00000000
Fe      14.20577523       8.20170816       1.65699527  F        6       0.00000000       0.00000000       0.00000000
Fe      12.38572927       2.52696045       2.17854327  T        5       0.29418400       0.89871760       0.00495653
Fe       3.91948894       2.57692883       2.29437422  T        5      -0.21395764       1.56882596       1.02069603
Fe       8.15387650       2.35573788       2.21614571  T        5       0.07926729      -0.51952170       0.98906544
Fe      14.38990188       5.95088987       2.07134843  T        5       1.86040091       0.08006696      -1.39254151
Fe       6.03396666       5.47840203       2.29976961  T        5      -0.33307625      -1.52046232       0.85057691
Fe      10.19725253       5.34421795       2.19795170  T        5       0.66124761       0.05275365       0.82892430
Fe      16.40192928       9.41139968       2.37884346  T        5       1.23680360      -0.40199554       0.39168947
Fe       7.92335305       9.33608045       2.34621195  T        5      -1.10221131       0.12412444       0.98231208
Fe      11.94801613       9.22795745       2.20156491  T        5      -1.61218120      -1.87302021      -1.15719404
Fe       0.21025834       0.24764822       2.98835298  T        4       0.51417778      -0.24139720      -1.05534203
Fe       3.99668154       0.28424277       2.94497852  T        4       0.27511643      -0.00431207      -0.81004623
Fe       8.10962436       0.14451314       3.02768749  T        4      -0.40860882      -1.33630742       1.56225493
Fe      14.12620706       3.95734703       3.21120869  T        4      -1.86342492      -0.47397780       0.31313365
Fe       6.09071020       3.06001901       3.26029745  T        4      -0.03641019      -0.00831647       2.64228621
Fe      10.03381620       3.39493295       3.11515977  T        4       0.24218502      -0.83084207      -2.73795836
Fe       4.22659294       7.00696300       3.05510992  T        4      -1.04275911      -0.38389828       0.30137692
Fe       7.96560026       6.78739835       2.93649369  T        4      -1.45403441       0.42378951      -0.62996222
Fe      12.00259518       6.79404436       3.02082304  T        4       1.38052088      -2.81017253       0.28996900
Fe       2.02022125       1.65226945       3.95733011  T        3       0.39992643       1.35378941      -0.13675936
Fe       6.04372613       0.82445989       3.91625219  T        3       1.34208528       0.14473234      -1.03390499
Fe      10.23765556       0.73099010       4.03903243  T        3      -0.95433801      -0.54041209      -0.03102171
Fe       4.15984989       4.69857423       3.96242153  T        3      -0.42862216      -0.61298465       0.71996916
Fe       8.35099532       4.79912803       3.88863400  T        3       0.83092170       0.96095151       0.75236305
Fe      11.99804670       4.77940738       4.05339340  T        3       1.22377362       0.88051719       1.88141434
Fe       6.42048127       8.45146096       4.09968175  T        3       2.44105318      -0.93791705       1.52346793
Fe      10.00553190       8.45074013       3.94055361  T        3       0.56082291      -0.15610717      -0.10098010
Fe      14.30776577       7.87056749       4.03978288  T        3       0.87455584      -0.54891508       1.19421810
Fe      12.03315950       2.06060626       4.41760194  T        2       0.33027699      -1.24113405      -0.36459992
Fe       4.15310283       2.10807011       4.58472035  T        2      -1.39159744      -1.53363706       1.70192452
Fe       8.23922100       2.30905422       4.58192782  T        2       1.05296068       0.75681495       0.70381411
Fe      14.32426846       5.48413215       4.69002063  T        2       1.20277926       1.43359587       2.50835928
Fe       6.10133283       5.98033987       4.56133089  T        2      -1.42154193      -0.42150910       0.83396308
Fe       9.99220243       6.10116101       4.54110939  T        2       0.01378594       1.47927793       0.16052783
Fe      16.24706231       8.96188989       4.66311469  T        2      -0.47583795      -0.74062802       0.88492888
Fe       8.32929132      10.03385358       4.50348409  T        2       2.96378516       1.77021211       0.54471746
Fe      12.30417593       9.02287097       4.41028335  T        2       1.82727199       0.40761895      -2.57830527
Fe      17.93624049      10.22947295       5.13783458  T        1       1.41155480      -0.00774052       1.06142165
Fe      10.58380497      10.42011717       5.16364394  T        1       0.91954544       1.25219839      -0.30288222
Fe      14.30556674       9.95498113       5.27295313  T        1       1.49978636      -0.07401318       1.84573632
Fe       2.08773483       3.35364583       5.42960606  T        1       0.95258681      -0.21344182       2.89449079
Fe       6.27101879       4.14705780       5.44413415  T        1       0.92084384       1.06834511       1.72024914
Fe      10.05509684       3.84584832       5.15411914  T        1       2.32532661      -0.92915035       2.12939088
Fe       4.16874310       6.82896205       5.35800031  T        1       5.15108841       1.43912199       1.42249175
Fe       8.24593115       7.56001291       5.14588354  T        1       1.89512126      -1.25922020      -1.51189217
Fe      12.48310241       6.85773519       5.28745200  T        1       1.11328208       2.14882465      -0.14142204
N        7.58688342       3.28837235       6.35646965  T        0       0.53362690       0.64408810       0.15037688
N        8.80028293       3.32553363       6.37931141  T        0      -0.98006279      -0.34797730       0.41342000
74
Lattice="12.176378772032349 0.0 0.0 6.088189386016174 10.545053342681582 0.0 0.0 0.0 20.0" Properties=species:S:1:pos:R:3:move_mask:L:1:tags:I:1:momenta:R:3 pbc="T T F"
Fe      12.17637877       2.34334519       0.00000000  F        8       0.00000000       0.00000000       0.00000000
Fe       4.05879292       2.34334519       0.00000000  F        8       0.00000000       0.00000000       0.00000000
Fe       8.11758585       2.34334519       0.00000000  F        8       0.00000000       0.00000000       0.00000000
Fe      14.20577523       5.85836297       0.00000000  F        8       0.00000000       0.00000000       0.00000000
Fe       6.08818939       5.85836297       0.00000000  F        8       0.00000000       0.00000000       0.00000000
Fe      10.14698231       5.85836297       0.00000000  F        8       0.00000000       0.00000000       0.00000000
Fe      16.23517169       9.37338075       0.00000000  F        8       0.00000000       0.00000000       0.00000000
Fe       8.11758585       9.37338075       0.00000000  F        8       0.00000000       0.00000000       0.00000000
Fe      12.17637877       9.37338075       0.00000000  F        8       0.00000000       0.00000000       0.00000000
Fe       0.00000000       0.00000000       0.82849764  F        7       0.00000000       0.00000000       0.00000000
Fe       4.05879292       0.00000000       0.82849764  F        7       0.00000000       0.00000000       0.00000000
Fe       8.11758585       0.00000000       0.82849764  F        7       0.00000000       0.00000000       0.00000000
Fe       2.02939646       3.51501778       0.82849764  F        7       0.00000000       0.00000000       0.00000000
Fe       6.08818939       3.51501778       0.82849764  F        7       0.00000000       0.00000000       0.00000000
Fe      10.14698231       3.51501778       0.82849764  F        7       0.00000000       0.00000000       0.00000000
Fe       4.05879292       7.03003556       0.82849764  F        7       0.00000000       0.00000000       0.00000000
Fe       8.11758585       7.03003556       0.82849764  F        7       0.00000000       0.00000000       0.00000000
Fe      12.17637877       7.03003556       0.82849764  F        7       0.00000000       0.00000000       0.00000000
Fe       2.02939646       1.17167259       1.65699527  F        6       0.00000000       0.00000000       0.00000000
Fe       6.08818939       1.17167259       1.65699527  F        6       0.00000000       0.00000000       0.00000000
Fe      10.14698231       1.17167259       1.65699527  F        6       0.00000000       0.00000000       0.00000000
Fe       4.05879292       4.68669037       1.65699527  F        6       0.00000000       0.00000000       0.00000000
Fe       8.11758585       4.68669037       1.65699527  F        6       0.00000000       0.00000000       0.00000000
Fe      12.17637877       4.68669037       1.65699527  F        6       0.00000000       0.00000000       0.00000000
Fe       6.08818939       8.20170816       1.65699527  F        6       0.00000000       0.00000000       0.00000000
Fe      10.14698231       8.20170816       1.65699527  F        6       0.00000000       0.00000000       0.00000000
Fe      14.20577523       8.20170816       1.65699527  F        6       0.00000000       0.00000000       0.00000000
Fe      12.38598065       2.52775589       2.17855222  T        5       0.27596521       0.90552631       0.01536436
Fe       3.91929703       2.57831530       2.29527318  T        5      -0.22135883       1.57610674       1.01855973
Fe       8.15394052       2.35527669       2.21701376  T        5       0.06588205      -0.52667472       0.97997863
Fe      14.39153247       5.95097045       2.07013059  T        5       1.83825182       0.10263160      -1.36970494
Fe       6.03368017       5.47706397       2.30051968  T        5      -0.31669971      -1.51473207       0.85089590
Fe      10.19783337       5.34431759       2.19869844  T        5       0.65621112       0.17355222       0.86501049
Fe      16.40301471       9.41104212       2.37918143  T        5       1.22537450      -0.40914172       0.37491849
Fe       7.92240349       9.33618235       2.34706929  T        5      -1.05150381       0.10699608       0.96239991
Fe      11.94660724       9.22631660       2.20054746  T        5      -1.58355851      -1.84898944      -1.15080987
Fe       0.21070716       0.24742934       2.98742760  T        4       0.50378206      -0.25515950      -1.04346445
Fe       3.99691048       0.28423093       2.94427691  T        4       0.24415776      -0.02249893      -0.78136931
Fe       8.10925996       0.14331966       3.02907770  T        4      -0.41802369      -1.37116991       1.59122285
Fe      14.12455258       3.95691053       3.21146674  T        4      -1.88959542      -0.51577646       0.27271700
Fe       6.09068039       3.06002772       3.26263899  T        4      -0.03124128       0.02813465       2.66930823
Fe      10.03404754       3.39414792       3.11272790  T        4       0.28255878      -0.94979901      -2.77748033
Fe       4.22567939       7.00662704       3.05538200  T        4      -1.02950141      -0.37819130       0.31580804
Fe       7.96432385       6.78779474       2.93595019  T        4      -1.44141364       0.47535519      -0.60294265
Fe      12.00381254       6.79157834       3.02109024  T        4       1.38099309      -2.78344278       0.31611052
Fe       2.02058077       1.65345701       3.95720271  T        3       0.41561031       1.34006495      -0.15228349
Fe       6.04493163       0.82459308       3.91534136  T        3       1.39253040       0.15754088      -1.03217381
Fe      10.23679159       0.73052344       4.03899955  T        3      -1.00535018      -0.51822290      -0.04341141
Fe       4.15948753       4.69802321       3.96306359  T        3      -0.39338969      -0.63706379       0.73652249
Fe       8.35170038       4.79996591       3.88931018  T        3       0.76868371       0.93952060       0.78152029
Fe      11.99913326       4.78017687       4.05506112  T        3       1.24093925       0.86475443       1.90182488
Fe       6.42264355       8.45061953       4.10101697  T        3       2.46375576      -0.97055162       1.50545003
Fe      10.00602378       8.45059645       3.94046082  T        3       0.55508750      -0.16974886      -0.10954298
Fe      14.30853053       7.87007790       4.04083122  T        3       0.86021618      -0.56170584       1.18382055
Fe      12.03344422       2.05953274       4.41728751  T        2       0.31548229      -1.19397904      -0.34854517
Fe       4.15187516       2.10672658       4.58622529  T        2      -1.39326161      -1.51394314       1.71195242
Fe       8.24014407       2.30971558       4.58254569  T        2       1.04105667       0.74325126       0.69728272
Fe      14.32532379       5.48542128       4.69225266  T        2       1.19115288       1.49023616       2.55453764
Fe       6.10008066       5.97998853       4.56205888  T        2      -1.41872575      -0.37533341       0.81729494
Fe       9.99222222       6.10248376       4.54124074  T        2       0.03120812       1.52096458       0.13736543
Fe      16.24663233       8.96123058       4.66389623  T        2      -0.49930424      -0.75477982       0.88795066
Fe       8.33190662      10.03540992       4.50396751  T        2       2.96874605       1.76015697       0.55192915
Fe      12.30579497       9.02322782       4.40800801  T        2       1.84543963       0.40193016      -2.58313626
Fe      17.93750032      10.22947663       5.13879101  T        1       1.44613230       0.01606247       1.10778789
Fe      10.58461238      10.42121476       5.16338073  T        1       0.91206817       1.23750322      -0.29419649
Fe      14.30689309       9.95491559       5.27456369  T        1       1.50901418      -0.07469900       1.80760337
Fe       2.08857805       3.35346008       5.43215213  T        1       0.96025122      -0.20773382       2.88060442
Fe       6.27182937       4.14797998       5.44563840  T        1       0.91746281       1.02348383       1.69179232
Fe      10.05716345       3.84503124       5.15603555  T        1       2.36251998      -0.92446954       2.21709050
Fe       4.17329124       6.83022888       5.35924829  T        1       5.16602912       1.43461869       1.40850606
Fe       8.24760474       7.55890103       5.14453911  T        1       1.90124278      -1.26299369      -1.53767910
Fe      12.48409141       6.85963256       5.28731264  T        1       1.13018577       2.15523985      -0.17466107
N        7.58864277       3.29065374       6.35701580  T        0       0.46007909       0.65387571       0.16071313
N        8.79696183       3.32428806       6.38075290  T        0      -0.90164123      -0.36048205       0.40696265
74
Lattice="12.176378772032349 0.0 0.0 6.088189386016174 10.545053342681582 0.0 0.0 0.0 20.0" Properties=species:S:1:pos:R:3:move_mask:L:1:tags:I:1:momenta:R:3 pbc="T T F"
Fe      12.17637877       2.34334519       0.00000000  F        8       0.00000000       0.00000000       0.00000000
Fe       4.05879292       2.34334519       0.00000000  F        8       0.00000000       0.00000000       0.00000000
Fe       8.11758585       2.34334519       0.00000000  F        8       0.00000000       0.00000000       0.00000000
Fe      14.20577523       5.85836297       0.00000000  F        8       0.00000000       0.00000000       0.00000000
Fe       6.08818939       5.85836297       0.00000000  F        8       0.00000000       0.00000000       0.00000000
Fe      10.14698231       5.85836297       0.00000000  F        8       0.00000000       0.00000000       0.00000000
Fe      16.23517169       9.37338075       0.00000000  F        8       0.00000000       0.00000000       0.00000000
Fe       8.11758585       9.37338075       0.00000000  F        8       0.00000000       0.00000000       0.00000000
Fe      12.17637877       9.37338075       0.00000000  F        8       0.00000000       0.00000000       0.00000000
Fe       0.00000000       0.00000000       0.82849764  F        7       0.00000000       0.00000000       0.00000000
Fe       4.05879292       0.00000000       0.82849764  F        7       0.00000000       0.00000000       0.00000000
Fe       8.11758585       0.00000000       0.82849764  F        7       0.00000000       0.00000000       0.00000000
Fe       2.02939646       3.51501778       0.82849764  F        7       0.00000000       0.00000000       0.00000000
Fe       6.08818939       3.51501778       0.82849764  F        7       0.00000000       0.00000000       0.00000000
Fe      10.14698231       3.51501778       0.82849764  F        7       0.00000000       0.00000000       0.00000000
Fe       4.05879292       7.03003556       0.82849764  F        7       0.00000000       0.00000000       0.00000000
Fe       8.11758585       7.03003556       0.82849764  F        7       0.00000000       0.00000000       0.00000000
Fe      12.17637877       7.03003556       0.82849764  F        7       0.00000000       0.00000000       0.00000000
Fe       2.02939646       1.17167259       1.65699527  F        6       0.00000000       0.00000000       0.00000000
Fe       6.08818939       1.17167259       1.65699527  F        6       0.00000000       0.00000000       0.00000000
Fe      10.14698231       1.17167259       1.65699527  F        6       0.00000000       0.00000000       0.00000000
Fe       4.05879292       4.68669037       1.65699527  F        6       0.00000000       0.00000000       0.00000000
Fe       8.11758585       4.68669037       1.65699527  F        6       0.00000000       0.00000000       0.00000000
Fe      12.17637877       4.68669037       1.65699527  F        6       0.00000000       0.00000000       0.00000000
Fe       6.08818939       8.20170816       1.65699527  F        6       0.00000000       0.00000000       0.00000000
Fe      10.14698231       8.20170816       1.65699527  F        6       0.00000000       0.00000000       0.00000000
Fe      14.20577523       8.20170816       1.65699527  F        6       0.00000000       0.00000000       0.00000000
Fe      12.38621686       2.52856040       2.17857041  T        5       0.25864309       0.91564009       0.02586033
Fe       3.91909783       2.57971362       2.29617389  T        5      -0.22957010       1.58935023       1.02057344
Fe       8.15399290       2.35480732       2.21787721  T        5       0.05261510      -0.53598570       0.97469983
Fe      14.39314984       5.95107121       2.06892833  T        5       1.82303234       0.12542922      -1.35168290
Fe       6.03340709       5.47572568       2.30127304  T        5      -0.30139476      -1.51491721       0.85460112
Fe      10.19841197       5.34452460       2.19948007  T        5       0.65349717       0.29559197       0.90457309
Fe      16.40409436       9.41067678       2.37950590  T        5       1.21876152      -0.41800396       0.35955843
Fe       7.92149517       9.33626950       2.34791239  T        5      -1.00445497       0.09022094       0.94616764
Fe      11.94521818       9.22469052       2.19953157  T        5      -1.56085003      -1.83209363      -1.14901103
Fe       0.21114846       0.24719738       2.98650931  T        4       0.49508891      -0.27001499      -1.03503028
Fe       3.99711294       0.28420302       2.94359794  T        4       0.21408797      -0.04068000      -0.75555083
Fe       8.10888576       0.14209046       3.03049898  T        4      -0.42915192      -1.41181303       1.62635140
Fe      14.12286838       3.95643572       3.21169055  T        4      -1.92322506      -0.55878129       0.23435516
Fe       6.09065500       3.06006872       3.26501378  T        4      -0.02625997       0.06480790       2.70695446
Fe      10.03431545       3.39325477       3.11025231  T        4       0.32400011      -1.07226776      -2.82595107
Fe       4.22477394       7.00629478       3.05566791  T        4      -1.02025840      -0.37399208       0.33147444
Fe       7.96305346       6.78823824       2.93542837  T        4      -1.43457571       0.52874594      -0.57840110
Fe      12.00503522       6.78912637       3.02138157  T        4       1.38704295      -2.76711215       0.34343617
Fe       2.02095558       1.65463718       3.95706104  T        3       0.43293909       1.33162410      -0.16849578
Fe       6.04618655       0.82473825       3.91442847  T        3       1.44855771       0.17125127      -1.03441711
Fe      10.23587924       0.73007447       4.03895572  T        3      -1.06005180      -0.49818792      -0.05566944
Fe       4.15915482       4.69744862       3.96372288  T        3      -0.35981962      -0.66388374       0.75610740
Fe       8.35235348       4.80078804       3.89001485  T        3       0.70998785       0.92147844       0.81384494
Fe      12.00023928       4.78093530       4.05675368  T        3       1.26292131       0.85193109       1.93014654
Fe       6.42483442       8.44974612       4.10234169  T        3       2.49602867      -1.00652409       1.49358663
Fe      10.00651266       8.45044020       3.94036006  T        3       0.55179666      -0.18391235      -0.11861657
Fe      14.30928567       7.86957503       4.04187455  T        3       0.84926301      -0.57680015       1.17810020
Fe      12.03371692       2.05849665       4.41698611  T        2       0.30172181      -1.15144596      -0.33364114
Fe       4.15064111       2.10539516       4.58774516  T        2      -1.40045109      -1.50008684       1.72892042
Fe       8.24106042       2.31036746       4.58315983  T        2       1.03355232       0.73233240       0.69258026
Fe      14.32637307       5.48676521       4.69453418  T        2       1.18425409       1.55192165       2.61034280
Fe       6.09882612       5.97967670       4.56277495  T        2      -1.42120968      -0.33039625       0.80363814
Fe       9.99225757       6.10384837       4.54135210  T        2       0.04894379       1.56813237       0.11464432
Fe      16.24618010       8.96055629       4.66468359  T        2      -0.52427002      -0.77155756       0.89455784
Fe       8.33453672      10.03696356       4.50445928  T        2       2.98544132       1.75703189       0.56143517
Fe      12.30743658       9.02358113       4.40571927  T        2       1.87105135       0.39799741      -2.59833177
Fe      17.93879562      10.22950133       5.13979191  T        1       1.48622205       0.03988508       1.15781667
Fe      10.58541648      10.42230368       5.16312413  T        1       0.90839039       1.22757428      -0.28669921
Fe      14.30823298       9.95484915       5.27614694  T        1       1.52443600      -0.07574593       1.77654851
Fe       2.08943147       3.35327879       5.43469573  T        1       0.97186192      -0.20250884       2.87733388
Fe       6.27263983       4.14886617       5.44712334  T        1       0.91689917       0.98258817       1.66966201
Fe      10.05927112       3.84421490       5.15803646  T        1       2.40897737      -0.92375454       2.31214834
Fe       4.17787083       6.83149684       5.36048897  T        1       5.20168135       1.43589256       1.40025671
Fe       8.24929041       7.55778136       5.14316666  T        1       1.91486235      -1.27178757      -1.56923349
Fe      12.48509931       6.86154322       5.28714340  T        1       1.15163557       2.17033017      -0.20848853
N        7.59012441       3.29297852       6.35760178  T        0       0.37427217       0.66618450       0.17235509
N        8.79393140       3.32299424       6.38217822  T        0      -0.81155772      -0.37403836       0.40257307
74
Lattice="12.176378772032349 0.0 0.0 6.088189386016174 10.545053342681582 0.0 0.0 0.0 20.0" Properties=species:S:1:pos:R:3:move_mask:L:1:tags:I:1:momenta:R:3 pbc="T T F"
Fe      12.17637877       2.34334519       0.00000000  F        8       0.00000000       0.00000000       0.00000000
Fe       4.05879292       2.34334519       0.00000000  F        8       0.00000000       0.00000000       0.00000000
Fe       8.11758585       2.34334519       0.00000000  F        8       0.00000000       0.00000000       0.00000000
Fe      14.20577523       5.85836297       0.00000000  F        8       0.00000000       0.00000000       0.00000000
Fe       6.08818939       5.85836297       0.00000000  F        8       0.00000000       0.00000000       0.00000000
Fe      10.14698231       5.85836297       0.00000000  F        8       0.00000000       0.00000000       0.00000000
Fe      16.23517169       9.37338075       0.00000000  F        8       0.00000000       0.00000000       0.00000000
Fe       8.11758585       9.37338075       0.00000000  F        8       0.00000000       0.00000000       0.00000000
Fe      12.17637877       9.37338075       0.00000000  F        8       0.00000000       0.00000000       0.00000000
Fe       0.00000000       0.00000000       0.82849764  F        7       0.00000000       0.00000000       0.00000000
Fe       4.05879292       0.00000000       0.82849764  F        7       0.00000000       0.00000000       0.00000000
Fe       8.11758585       0.00000000       0.82849764  F        7       0.00000000       0.00000000       0.00000000
Fe       2.02939646       3.51501778       0.82849764  F        7       0.00000000       0.00000000       0.00000000
Fe       6.08818939       3.51501778       0.82849764  F        7       0.00000000       0.00000000       0.00000000
Fe      10.14698231       3.51501778       0.82849764  F        7       0.00000000       0.00000000       0.00000000
Fe       4.05879292       7.03003556       0.82849764  F        7       0.00000000       0.00000000       0.00000000
Fe       8.11758585       7.03003556       0.82849764  F        7       0.00000000       0.00000000       0.00000000
Fe      12.17637877       7.03003556       0.82849764  F        7       0.00000000       0.00000000       0.00000000
Fe       2.02939646       1.17167259       1.65699527  F        6       0.00000000       0.00000000       0.00000000
Fe       6.08818939       1.17167259       1.65699527  F        6       0.00000000       0.00000000       0.00000000
Fe      10.14698231       1.17167259       1.65699527  F        6       0.00000000       0.00000000       0.00000000
Fe       4.05879292       4.68669037       1.65699527  F        6       0.00000000       0.00000000       0.00000000
Fe       8.11758585       4.68669037       1.65699527  F        6       0.00000000       0.00000000       0.00000000
Fe      12.17637877       4.68669037       1.65699527  F        6       0.00000000       0.00000000       0.00000000
Fe       6.08818939       8.20170816       1.65699527  F        6       0.00000000       0.00000000       0.00000000
Fe      10.14698231       8.20170816       1.65699527  F        6       0.00000000       0.00000000       0.00000000
Fe      14.20577523       8.20170816       1.65699527  F        6       0.00000000       0.00000000       0.00000000
Fe      12.38643643       2.52936942       2.17859779  T        5       0.23966323       0.92057048       0.03628533
Fe       3.91889248       2.58111604       2.29707162  T        5      -0.23650976       1.59379805       1.01721902
Fe       8.15403323       2.35433219       2.21873136  T        5       0.03886735      -0.54252006       0.96407630
Fe      14.39474500       5.95119148       2.06774867  T        5       1.79758260       0.14745995      -1.32569405
Fe       6.03314906       5.47439440       2.30202565  T        5      -0.28422638      -1.50686098       0.85373699
Fe      10.19898496       5.34483848       2.20029247  T        5       0.64696918       0.41701472       0.93947136
Fe      16.40516240       9.41030552       2.37981504  T        5       1.20552338      -0.42474464       0.34213165
Fe       7.92063346       9.33634134       2.34873661  T        5      -0.95130976       0.07282799       0.92464884
Fe      11.94385673       9.22308811       2.19852268  T        5      -1.52928717      -1.80507619      -1.14104587
Fe       0.21157960       0.24695352       2.98560368  T        4       0.48340301      -0.28355489      -1.02028763
Fe       3.99728774       0.28415925       2.94294548  T        4       0.18267913      -0.05860972      -0.72532852
Fe       8.10850371       0.14083178       3.03194364  T        4      -0.43807064      -1.44536918       1.65270857
Fe      14.12116349       3.95592585       3.21187972  T        4      -1.94659262      -0.59808260       0.19557825
Fe       6.09063412       3.06014192       3.26740916  T        4      -0.02118325       0.10138181       2.73022073
Fe      10.03461849       3.39225838       3.10774804  T        4       0.36379908      -1.18913706      -2.85731958
Fe       4.22388150       7.00596800       3.05596612  T        4      -1.00541925      -0.36777525       0.34539867
Fe       7.96179586       6.78872649       2.93493094  T        4      -1.42005753       0.57942484      -0.55074606
Fe      12.00625677       6.78670217       3.02169544  T        4       1.38575609      -2.73518605       0.36894451
Fe       2.02134369       1.65580359       3.95690579  T        3       0.44799659       1.31595564      -0.18394981
Fe       6.04748427       0.82489486       3.91351852  T        3       1.49705480       0.18437093      -1.03098672
Fe      10.23492358       0.72964554       4.03890145  T        3      -1.10894842      -0.47550311      -0.06736831
Fe       4.15885346       4.69685332       3.96439599  T        3      -0.32430450      -0.68744629       0.77180779
Fe       8.35295151       4.80158972       3.89074432  T        3       0.64776506       0.89806249       0.84197900
Fe      12.00135877       4.78167814       4.05846240  T        3       1.27809967       0.83398506       1.94856266
Fe       6.42704202       8.44884584       4.10364895  T        3       2.51478759      -1.03669029       1.47382993
Fe      10.00699615       8.45027236       3.94025180  T        3       0.54577560      -0.19698393      -0.12716842
Fe      14.31002709       7.86906147       4.04290725  T        3       0.83367929      -0.58892356       1.16600186
Fe      12.03397591       2.05750367       4.41669957  T        2       0.28606714      -1.10245221      -0.31665838
Fe       4.14940730       2.10408314       4.58927197  T        2      -1.40013380      -1.47794253       1.73680359
Fe       8.24196538       2.31100609       4.58376615  T        2       1.02072620       0.71717908       0.68330849
Fe      14.32741067       5.48815605       4.69685258  T        2       1.17096628       1.60460874       2.65179972
Fe       6.09757622       5.97940631       4.56347504  T        2      -1.41571407      -0.28326983       0.78537045
Fe       9.99230847       6.10524710       4.54144276  T        2       0.06667987       1.60647336       0.09110455
Fe      16.24570846       8.95987095       4.66547261  T        2      -0.54601568      -0.78387063       0.89644060
Fe       8.33716753      10.03850614       4.50495686  T        2       2.98610014       1.74438913       0.56806584
Fe      12.30909212       9.02392917       4.40342926  T        2       1.88682118       0.39207779      -2.59973127
Fe      17.94011932      10.22954691       5.14083130  T        1       1.51823497       0.06353778       1.20105882
Fe      10.58621313      10.42337797       5.16287551  T        1       0.90000549       1.21086414      -0.27765819
Fe      14.30957944       9.95478211       5.27769430  T        1       1.53192903      -0.07645258       1.73573056
Fe       2.09029066       3.35310322       5.43722253  T        1       0.97843033      -0.19583063       2.85775595
Fe       6.27344512       4.14971149       5.44858066  T        1       0.91061280       0.93615660       1.63809394
Fe      10.06140852       3.84340341       5.16010999  T        1       2.44252874      -0.91835499       2.39367341
Fe       4.18245758       6.83275920       5.36171581  T        1       5.20970296       1.42954020       1.38460363
Fe       8.25097909       7.55665990       5.14177382  T        1       1.91818739      -1.27378048      -1.59212126
Fe      12.48612080       6.86345709       5.28694525  T        1       1.16703720       2.17393243      -0.24121074
N        7.59127230       3.29533418       6.35822672  T        0       0.27331528       0.67495964       0.18370530
N        8.79126004       3.32166016       6.38358127  T        0      -0.70280905      -0.38538037       0.39642194
74
Lattice="12.176378772032349 0.0 0.0 6.088189386016174 10.545053342681582 0.0 0.0 0.0 20.0" Properties=species:S:1:pos:R:3:move_mask:L:1:tags:I:1:momenta:R:3 pbc="T T F"
Fe      12.17637877       2.34334519       0.00000000  F        8       0.00000000       0.00000000       0.00000000
Fe       4.05879292       2.34334519       0.00000000  F        8       0.00000000       0.00000000       0.00000000
Fe       8.11758585       2.34334519       0.00000000  F        8       0.00000000       0.00000000       0.00000000
Fe      14.20577523       5.85836297       0.00000000  F        8       0.00000000       0.00000000       0.00000000
Fe       6.08818939       5.85836297       0.00000000  F        8       0.00000000       0.00000000       0.00000000
Fe      10.14698231       5.85836297       0.00000000  F        8       0.00000000       0.00000000       0.00000000
Fe      16.23517169       9.37338075       0.00000000  F        8       0.00000000       0.00000000       0.00000000
Fe       8.11758585       9.37338075       0.00000000  F        8       0.00000000       0.00000000       0.00000000
Fe      12.17637877       9.37338075       0.00000000  F        8       0.00000000       0.00000000       0.00000000
Fe       0.00000000       0.00000000       0.82849764  F        7       0.00000000       0.00000000       0.00000000
Fe       4.05879292       0.00000000       0.82849764  F        7       0.00000000       0.00000000       0.00000000
Fe       8.11758585       0.00000000       0.82849764  F        7       0.00000000       0.00000000       0.00000000
Fe       2.02939646       3.51501778       0.82849764  F        7       0.00000000       0.00000000       0.00000000
Fe       6.08818939       3.51501778       0.82849764  F        7       0.00000000       0.00000000       0.00000000
Fe      10.14698231       3.51501778       0.82849764  F        7       0.00000000       0.00000000       0.00000000
Fe       4.05879292       7.03003556       0.82849764  F        7       0.00000000       0.00000000       0.00000000
Fe       8.11758585       7.03003556       0.82849764  F        7       0.00000000       0.00000000       0.00000000
Fe      12.17637877       7.03003556       0.82849764  F        7       0.00000000       0.00000000       0.00000000
Fe       2.02939646       1.17167259       1.65699527  F        6       0.00000000       0.00000000       0.00000000
Fe       6.08818939       1.17167259       1.65699527  F        6       0.00000000       0.00000000       0.00000000
Fe      10.14698231       1.17167259       1.65699527  F        6       0.00000000       0.00000000       0.00000000
Fe       4.05879292       4.68669037       1.65699527  F        6       0.00000000       0.00000000       0.00000000
Fe       8.11758585       4.68669037       1.65699527  F        6       0.00000000       0.00000000       0.00000000
Fe      12.17637877       4.68669037       1.65699527  F        6       0.00000000       0.00000000       0.00000000
Fe       6.08818939       8.20170816       1.65699527  F        6       0.00000000       0.00000000       0.00000000
Fe      10.14698231       8.20170816       1.65699527  F        6       0.00000000       0.00000000       0.00000000
Fe      14.20577523       8.20170816       1.65699527  F        6       0.00000000       0.00000000       0.00000000
Fe      12.38663887       2.53018137       2.17863431  T        5       0.22012551       0.92369778       0.04666376
Fe       3.91868138       2.58252003       2.29796504  T        5      -0.24298732       1.59535655       1.01234252
Fe       8.15406134       2.35385203       2.21957479  T        5       0.02492838      -0.54823925       0.95182668
Fe      14.39631509       5.95133086       2.06659400  T        5       1.76889876       0.16903185      -1.29697154
Fe       6.03290662       5.47307235       2.30277633  T        5      -0.26644406      -1.49628781       0.85150855
Fe      10.19955118       5.34525889       2.20113432  T        5       0.63911061       0.53801969       0.97284684
Fe      16.40621709       9.40992888       2.38010833  T        5       1.19031327      -0.43087951       0.32410918
Fe       7.91982007       9.33639774       2.34954055  T        5      -0.89620067       0.05528059       0.90153817
Fe      11.94252536       9.22151208       2.19752238  T        5      -1.49492809      -1.77497918      -1.13127073
Fe       0.21199965       0.24669809       2.98471275  T        4       0.47065923      -0.29669236      -1.00320075
Fe       3.99743461       0.28409982       2.94232075  T        4       0.15096153      -0.07630585      -0.69374284
Fe       8.10811439       0.13954540       3.03340913  T        4      -0.44632327      -1.47689303       1.67618606
Fe      14.11944075       3.95538259       3.21203493  T        4      -1.96671884      -0.63547192       0.15755617
Fe       6.09061770       3.06024723       3.26982125  T        4      -0.01614632       0.13783840       2.74906979
Fe      10.03495604       3.39116089       3.10522104  T        4       0.40288208      -1.30354703      -2.88191829
Fe       4.22300356       7.00564719       3.05627610  T        4      -0.98890181      -0.36098637       0.35871996
Fe       7.96055297       6.78925852       2.93445859  T        4      -1.40332614       0.62899956      -0.52234292
Fe      12.00747531       6.78431015       3.02203122  T        4       1.38233151      -2.69823557       0.39373554
Fe       2.02174443       1.65695436       3.95673714  T        3       0.46229000       1.29815170      -0.19916851
Fe       6.04882262       0.82506289       3.91261307  T        3       1.54308727       0.19744860      -1.02577956
Fe      10.23392656       0.72923719       4.03883710  T        3      -1.15564652      -0.45220094      -0.07863199
Fe       4.15858377       4.69623814       3.96508190  T        3      -0.28845852      -0.71006518       0.78633913
Fe       8.35349409       4.80236939       3.89149743  T        3       0.58513332       0.87287611       0.86876588
Fe      12.00248980       4.78240381       4.06018479  T        3       1.29110548       0.81423146       1.96416389
Fe       6.42926255       8.44792068       4.10493686  T        3       2.52922846      -1.06458504       1.45190994
Fe      10.00747369       8.45009335       3.94013614  T        3       0.53913902      -0.20955366      -0.13558703
Fe      14.31075364       7.86853803       4.04392768  T        3       0.81675705      -0.60014603       1.15201816
Fe      12.03422064       2.05655541       4.41642852  T        2       0.26975638      -1.05166140      -0.29897080
Fe       4.14817571       2.10279274       4.59080338  T        2      -1.39755066      -1.45328053       1.74201432
Fe       8.24285775       2.31163029       4.58436302  T        2       1.00653024       0.70069841       0.67225940
Fe      14.32843495       5.48959066       4.69920356  T        2       1.15581903       1.65371119       2.68836748
Fe       6.09633328       5.97917791       4.56415786  T        2      -1.40757730      -0.23553224       0.76562172
Fe       9.99237498       6.10667710       4.54151252  T        2       0.08448133       1.64156232       0.06732923
Fe      16.24521866       8.95917602       4.66626207  T        2      -0.56633371      -0.79450772       0.89693107
Fe       8.33979476      10.04003514       4.50545955  T        2       2.98188650       1.72888776       0.57387708
Fe      12.31075897       9.02427152       4.40114157  T        2       1.89963759       0.38570941      -2.59704964
Fe      17.94146899      10.22961321       5.14190677  T        1       1.54749355       0.08700093       1.24152109
Fe      10.58700124      10.42443582       5.16263522  T        1       0.89038298       1.19208621      -0.26821383
Fe      14.31093046       9.95471453       5.27920328  T        1       1.53714778      -0.07709504       1.69208803
Fe       2.09115433       3.35293396       5.43972777  T        1       0.98355009      -0.18849946       2.83276590
Fe       6.27424327       4.15051459       5.45000775  T        1       0.90211523       0.88819236       1.60357256
Fe      10.06357201       3.84259782       5.16225133  T        1       2.47192045      -0.91175489       2.46972620
Fe       4.18704426       6.83401402       5.36292703  T        1       5.20948994       1.42098439       1.36690486
Fe       8.25266802       7.55553844       5.14036319  T        1       1.91835495      -1.27371181      -1.61203711
Fe      12.48715427       6.86537116       5.28671867  T        1       1.18059096       2.17414255      -0.27336698
N        7.59204317       3.29771697       6.35889146  T        0       0.16112387       0.68270026       0.19525234
N        8.78899744       3.32028874       6.38496124  T        0      -0.58100328      -0.39595473       0.38999346
74
Lattice="12.176378772032349 0.0 0.0 6.088189386016174 10.545053342681582 0.0 0.0 0.0 20.0" Properties=species:S:1:pos:R:3:move_mask:L:1:tags:I:1:momenta:R:3 pbc="T T F"
Fe      12.17637877       2.34334519       0.00000000  F        8       0.00000000       0.00000000       0.00000000
Fe       4.05879292       2.34334519       0.00000000  F        8       0.00000000       0.00000000       0.00000000
Fe       8.11758585       2.34334519       0.00000000  F        8       0.00000000       0.00000000       0.00000000
Fe      14.20577523       5.85836297       0.00000000  F        8       0.00000000       0.00000000       0.00000000
Fe       6.08818939       5.85836297       0.00000000  F        8       0.00000000       0.00000000       0.00000000
Fe      10.14698231       5.85836297       0.00000000  F        8       0.00000000       0.00000000       0.00000000
Fe      16.23517169       9.37338075       0.00000000  F        8       0.00000000       0.00000000       0.00000000
Fe       8.11758585       9.37338075       0.00000000  F        8       0.00000000       0.00000000       0.00000000
Fe      12.17637877       9.37338075       0.00000000  F        8       0.00000000       0.00000000       0.00000000
Fe       0.00000000       0.00000000       0.82849764  F        7       0.00000000       0.00000000       0.00000000
Fe       4.05879292       0.00000000       0.82849764  F        7       0.00000000       0.00000000       0.00000000
Fe       8.11758585       0.00000000       0.82849764  F        7       0.00000000       0.00000000       0.00000000
Fe       2.02939646       3.51501778       0.82849764  F        7       0.00000000       0.00000000       0.00000000
Fe       6.08818939       3.51501778       0.82849764  F        7       0.00000000       0.00000000       0.00000000
Fe      10.14698231       3.51501778       0.82849764  F        7       0.00000000       0.00000000       0.00000000
Fe       4.05879292       7.03003556       0.82849764  F        7       0.00000000       0.00000000       0.00000000
Fe       8.11758585       7.03003556       0.82849764  F        7       0.00000000       0.00000000       0.00000000
Fe      12.17637877       7.03003556       0.82849764  F        7       0.00000000       0.00000000       0.00000000
Fe       2.02939646       1.17167259       1.65699527  F        6       0.00000000       0.00000000       0.00000000
Fe       6.08818939       1.17167259       1.65699527  F        6       0.00000000       0.00000000       0.00000000
Fe      10.14698231       1.17167259       1.65699527  F        6       0.00000000       0.00000000       0.00000000
Fe       4.05879292       4.68669037       1.65699527  F        6       0.00000000       0.00000000       0.00000000
Fe       8.11758585       4.68669037       1.65699527  F        6       0.00000000       0.00000000       0.00000000
Fe      12.17637877       4.68669037       1.65699527  F        6       0.00000000       0.00000000       0.00000000
Fe       6.08818939       8.20170816       1.65699527  F        6       0.00000000       0.00000000       0.00000000
Fe      10.14698231       8.20170816       1.65699527  F        6       0.00000000       0.00000000       0.00000000
Fe      14.20577523       8.20170816       1.65699527  F        6       0.00000000       0.00000000       0.00000000
Fe      12.38682536       2.53100145       2.17868024  T        5       0.20193289       0.93272031       0.05735230
Fe       3.91846316       2.58393478       2.29886027  T        5      -0.25101147       1.60734359       1.01442323
Fe       8.15407728       2.35336354       2.22041309  T        5       0.01104877      -0.55770794       0.94594193
Fe      14.39787036       5.95149013       2.06545713  T        5       1.75185362       0.19148174      -1.27644253
Fe       6.03267829       5.47175070       2.30353013  T        5      -0.25033453      -1.49573548       0.85503991
Fe      10.20011417       5.34578907       2.20201134  T        5       0.63528098       0.66265034       1.01272078
Fe      16.40726549       9.40954423       2.38038769  T        5       1.18312800      -0.43998795       0.30826132
Fe       7.91905001       9.33643901       2.35032948  T        5      -0.84679963       0.03810209       0.88444815
Fe      11.94121543       9.21995200       2.19652391  T        5      -1.47037461      -1.75673198      -1.12917218
Fe       0.21241118       0.24642931       2.98383118  T        4       0.46083334      -0.31186175      -0.99219849
Fe       3.99755446       0.28402443       2.94171975  T        4       0.12030928      -0.09433958      -0.66669573
Fe       8.10771513       0.13822234       3.03490519  T        4      -0.45761312      -1.51862999       1.71070477
Fe      14.11768861       3.95480307       3.21215810  T        4      -1.99996123      -0.67611633       0.12174568
Fe       6.09060559       3.06038546       3.27226632  T        4      -0.01130182       0.17520575       2.78640888
Fe      10.03533032       3.38995522       3.10265615  T        4       0.44448152      -1.42596466      -2.92373523
Fe       4.22213427       7.00533019       3.05659992  T        4      -0.97901986      -0.35666658       0.37438952
Fe       7.95931640       6.78983783       2.93400805  T        4      -1.39616017       0.68254913      -0.49765661
Fe      12.00869913       6.78193482       3.02239111  T        4       1.38833206      -2.67892501       0.42101207
Fe       2.02216048       1.65809721       3.95655389  T        3       0.47962849       1.28911771      -0.21576715
Fe       6.05021065       0.82524372       3.91170613  T        3       1.59938462       0.21209045      -1.02738803
Fe      10.23288174       0.72884657       4.03876252  T        3      -1.20963417      -0.43214523      -0.09007988
Fe       4.15834380       4.69559875       3.96578533  T        3      -0.25482746      -0.73759449       0.80621975
Fe       8.35398535       4.80313196       3.89227929  T        3       0.52720933       0.85328854       0.90137377
Fe      12.00363994       4.78311675       4.06193276  T        3       1.31269942       0.79954370       1.99330923
Fe       6.43151076       8.44696489       4.10621424  T        3       2.56042783      -1.09899428       1.44003403
Fe      10.00794872       8.44990211       3.94001224  T        3       0.53642178      -0.22332508      -0.14498222
Fe      14.31147017       7.86800111       4.04494268  T        3       0.80538225      -0.61544221       1.14582153
Fe      12.03445253       2.05564556       4.41617134  T        2       0.25509717      -1.00803957      -0.28314185
Fe       4.14693805       2.10151543       4.59234983  T        2      -1.40438783      -1.43832892       1.75909084
Fe       8.24374376       2.31224411       4.58495392  T        2       0.99941442       0.68886994       0.66524616
Fe      14.32945282       5.49107790       4.70160249  T        2       1.14852525       1.71286797       2.74237598
Fe       6.09508926       5.97899017       4.56482777  T        2      -1.40857052      -0.18931862       0.75084872
Fe       9.99245773       6.10814748       4.54156172  T        2       0.10300235       1.68698070       0.04394776
Fe      16.24470784       8.95846718       4.66705734  T        2      -0.58987586      -0.81006292       0.90352072
Fe       8.34243605      10.04156081       4.50597081  T        2       2.99772973       1.72502194       0.58364745
Fe      12.31244847       9.02461065       4.39884069  T        2       1.92533000       0.38214409      -2.61199923
Fe      17.94285349      10.22970063       5.14302487  T        1       1.58682080       0.11092261       1.28942535
Fe      10.58778630      10.42548420       5.16240162  T        1       0.88700642       1.18126737      -0.26064365
Fe      14.31229533       9.95464590       5.28068395  T        1       1.55292278      -0.07831244       1.65991011
Fe       2.09202843       3.35277017       5.44222757  T        1       0.99542572      -0.18211216       2.82611361
Fe       6.27503901       4.15128078       5.45141391  T        1       0.89901516       0.84627500       1.57963010
Fe      10.06577601       3.84179248       5.16447360  T        1       2.51767296      -0.91158507       2.56068957
Fe       4.19166191       6.83526985       5.36413091  T        1       5.24456373       1.42213169       1.35864940
Fe       8.25436852       7.55440945       5.13892561  T        1       1.93139073      -1.28221998      -1.64236911
Fe      12.48820672       6.86729845       5.28646225  T        1       1.20211720       2.18912669      -0.30712418
N        7.59240730       3.30014331       6.35960213  T        0       0.04175989       0.69514048       0.20851683
N        8.78716729       3.31887095       6.38632850  T        0      -0.45374238      -0.40915844       0.38646646
74
Lattice="12.176378772032349 0.0 0.0 6.088189386016174 10.545053342681582 0.0 0.0 0.0 20.0" Properties=species:S:1:pos:R:3:move_mask:L:1:tags:I:1:momenta:R:3 pbc="T T F"
Fe      12.17637877       2.34334519       0.00000000  F        8       0.00000000       0.00000000       0.00000000
Fe       4.05879292       2.34334519       0.00000000  F        8       0.00000000       0.00000000       0.00000000
Fe       8.11758585       2.34334519       0.00000000  F        8       0.00000000       0.00000000       0.00000000
Fe      14.20577523       5.85836297       0.00000000  F        8       0.00000000       0.00000000       0.00000000
Fe       6.08818939       5.85836297       0.00000000  F        8       0.00000000       0.00000000       0.00000000
Fe      10.14698231       5.85836297       0.00000000  F        8       0.00000000       0.00000000       0.00000000
Fe      16.23517169       9.37338075       0.00000000  F        8       0.00000000       0.00000000       0.00000000
Fe       8.11758585       9.37338075       0.00000000  F        8       0.00000000       0.00000000       0.00000000
Fe      12.17637877       9.37338075       0.00000000  F        8       0.00000000       0.00000000       0.00000000
Fe       0.00000000       0.00000000       0.82849764  F        7       0.00000000       0.00000000       0.00000000
Fe       4.05879292       0.00000000       0.82849764  F        7       0.00000000       0.00000000       0.00000000
Fe       8.11758585       0.00000000       0.82849764  F        7       0.00000000       0.00000000       0.00000000
Fe       2.02939646       3.51501778       0.82849764  F        7       0.00000000       0.00000000       0.00000000
Fe       6.08818939       3.51501778       0.82849764  F        7       0.00000000       0.00000000       0.00000000
Fe      10.14698231       3.51501778       0.82849764  F        7       0.00000000       0.00000000       0.00000000
Fe       4.05879292       7.03003556       0.82849764  F        7       0.00000000       0.00000000       0.00000000
Fe       8.11758585       7.03003556       0.82849764  F        7       0.00000000       0.00000000       0.00000000
Fe      12.17637877       7.03003556       0.82849764  F        7       0.00000000       0.00000000       0.00000000
Fe       2.02939646       1.17167259       1.65699527  F        6       0.00000000       0.00000000       0.00000000
Fe       6.08818939       1.17167259       1.65699527  F        6       0.00000000       0.00000000       0.00000000
Fe      10.14698231       1.17167259       1.65699527  F        6       0.00000000       0.00000000       0.00000000
Fe       4.05879292       4.68669037       1.65699527  F        6       0.00000000       0.00000000       0.00000000
Fe       8.11758585       4.68669037       1.65699527  F        6       0.00000000       0.00000000       0.00000000
Fe      12.17637877       4.68669037       1.65699527  F        6       0.00000000       0.00000000       0.00000000
Fe       6.08818939       8.20170816       1.65699527  F        6       0.00000000       0.00000000       0.00000000
Fe      10.14698231       8.20170816       1.65699527  F        6       0.00000000       0.00000000       0.00000000
Fe      14.20577523       8.20170816       1.65699527  F        6       0.00000000       0.00000000       0.00000000
Fe      12.38699488       2.53182579       2.17873542  T        5       0.18259151       0.93735776       0.06785631
Fe       3.91823884       2.58535383       2.29975350  T        5      -0.25789337       1.61200577       1.01219174
Fe       8.15408082       2.35286877       2.22124251  T        5      -0.00308435      -0.56484244       0.93580216
Fe      14.39940367       5.95166845       2.06434359  T        5       1.72669997       0.21297217      -1.24960731
Fe       6.03246527       5.47043532       2.30428379  T        5      -0.23289554      -1.48853323       0.85485424
Fe      10.20067120       5.34642716       2.20291978  T        5       0.62834564       0.78514115       1.04834718
Fe      16.40830298       9.40915316       2.38065181  T        5       1.17069114      -0.44728932       0.29094437
Fe       7.91832714       9.33646491       2.35109986  T        5      -0.79301308       0.02064186       0.86329958
Fe      11.93993304       9.21841490       2.19553161  T        5      -1.43891415      -1.73051756      -1.12214367
Fe       0.21281211       0.24614827       2.98296348  T        4       0.44866121      -0.32579057      -0.97606949
Fe       3.99764671       0.28393349       2.94114535  T        4       0.08897959      -0.11189393      -0.63639923
Fe       8.10730760       0.13686800       3.03642516  T        4      -0.46699428      -1.55422984       1.73766109
Fe      14.11591475       3.95419058       3.21224957  T        4      -2.02447515      -0.71301039       0.08632440
Fe       6.09059778       3.06055613       3.27473378  T        4      -0.00645906       0.21202914       2.81169510
Fe      10.03573968       3.38864687       3.10006640  T        4       0.48419859      -1.54209723      -2.95075011
Fe       4.22127752       7.00501838       3.05693616  T        4      -0.96473079      -0.35078710       0.38844441
Fe       7.95809150       6.79046187       2.93358121  T        4      -1.38290649       0.73317437      -0.47081863
Fe      12.00992298       6.77958712       3.02277348  T        4       1.38837207      -2.64714720       0.44644308
Fe       2.02259003       1.65922712       3.95635673  T        3       0.49489478       1.27437057      -0.23156548
Fe       6.05164239       0.82543681       3.91080175  T        3       1.64886989       0.22612889      -1.02439174
Fe      10.23179394       0.72847530       4.03867829  T        3      -1.25814512      -0.41026159      -0.10086270
Fe       4.15813450       4.69493774       3.96650330  T        3      -0.22013872      -0.76218102       0.82272973
Fe       8.35442358       4.80387376       3.89308658  T        3       0.46736197       0.82952336       0.93019538
Fe      12.00480413       4.78381343       4.06369905  T        3       1.32856442       0.78082383       2.01418012
Fe       6.43377667       8.44598312       4.10747569  T        3       2.58027046      -1.12811916       1.42200263
Fe      10.00841942       8.44969962       3.93988053  T        3       0.53161932      -0.23598868      -0.15386975
Fe      14.31217355       7.86745298       4.04594780  T        3       0.79043570      -0.62815777       1.13456370
Fe      12.03467038       2.05477820       4.41592934  T        2       0.23905134      -0.95978303      -0.26581209
Fe       4.14569972       2.10025692       4.59390472  T        2      -1.40509179      -1.41686724       1.76866415
Fe       8.24461975       2.31284479       4.58553587  T        2       0.98814051       0.67393828       0.65494018
Fe      14.33045984       5.49261050       4.70403846  T        2       1.13619690       1.76377340       2.78398629
Fe       6.09384993       5.97884414       4.56548163  T        2      -1.40299648      -0.14190922       0.73248180
Fe       9.99255658       6.10965131       4.54159000  T        2       0.12135129       1.72452481       0.02014547
Fe      16.24417869       8.95774785       4.66785501  T        2      -0.61037354      -0.82171046       0.90623048
Fe       8.34507985      10.04307641       4.50648854  T        2       3.00044445       1.71351911       0.59100848
Fe      12.31415339       9.02494525       4.39653653  T        2       1.94279261       0.37708458      -2.61568408
Fe      17.94426660      10.22980877       5.14418007  T        1       1.61905498       0.13438636       1.33103308
Fe      10.58856506      10.42651843       5.16217570  T        1       0.87996045       1.16510628      -0.25194803
Fe      14.31366831       9.95457646       5.28212975  T        1       1.56216706      -0.07924709       1.62027848
Fe       2.09290930       3.35261289       5.44471030  T        1       1.00312969      -0.17455267       2.80622180
Fe       6.27582826       4.15200660       5.45279269  T        1       0.89130060       0.80041358       1.54836835
Fe      10.06801075       3.84099067       5.16676590  T        1       2.55230630      -0.90767912       2.63926151
Fe       4.19629060       6.83652129       5.36532237  T        1       5.25695712       1.41716003       1.34460367
Fe       8.25607312       7.55327785       5.13746764  T        1       1.93594917      -1.28512906      -1.66521073
Fe      12.48927364       6.86923066       5.28617720  T        1       1.21851175       2.19469835      -0.33950178
N        7.59233671       3.30260318       6.36035714  T        0      -0.08407279       0.70473758       0.22128781
N        8.78580804       3.31741273       6.38767775  T        0      -0.31702914      -0.42072036       0.38135718
74
Lattice="12.176378772032349 0.0 0.0 6.088189386016174 10.545053342681582 0.0 0.0 0.0 20.0" Properties=species:S:1:pos:R:3:move_mask:L:1:tags:I:1:momenta:R:3 pbc="T T F"
Fe      12.17637877       2.34334519       0.00000000  F        8       0.00000000       0.00000000       0.00000000
Fe       4.05879292       2.34334519       0.00000000  F        8       0.00000000       0.00000000       0.00000000
Fe       8.11758585       2.34334519       0.00000000  F        8       0.00000000       0.00000000       0.00000000
Fe      14.20577523       5.85836297       0.00000000  F        8       0.00000000       0.00000000       0.00000000
Fe       6.08818939       5.85836297       0.00000000  F        8       0.00000000       0.00000000       0.00000000
Fe      10.14698231       5.85836297       0.00000000  F        8       0.00000000       0.00000000       0.00000000
Fe      16.23517169       9.37338075       0.00000000  F        8       0.00000000       0.00000000       0.00000000
Fe       8.11758585       9.37338075       0.00000000  F        8       0.00000000       0.00000000       0.00000000
Fe      12.17637877       9.37338075       0.00000000  F        8       0.00000000       0.00000000       0.00000000
Fe       0.00000000       0.00000000       0.82849764  F        7       0.00000000       0.00000000       0.00000000
Fe       4.05879292       0.00000000       0.82849764  F        7       0.00000000       0.00000000       0.00000000
Fe       8.11758585       0.00000000       0.82849764  F        7       0.00000000       0.00000000       0.00000000
Fe       2.02939646       3.51501778       0.82849764  F        7       0.00000000       0.00000000       0.00000000
Fe       6.08818939       3.51501778       0.82849764  F        7       0.00000000       0.00000000       0.00000000
Fe      10.14698231       3.51501778       0.82849764  F        7       0.00000000       0.00000000       0.00000000
Fe       4.05879292       7.03003556       0.82849764  F        7       0.00000000       0.00000000       0.00000000
Fe       8.11758585       7.03003556       0.82849764  F        7       0.00000000       0.00000000       0.00000000
Fe      12.17637877       7.03003556       0.82849764  F        7       0.00000000       0.00000000       0.00000000
Fe       2.02939646       1.17167259       1.65699527  F        6       0.00000000       0.00000000       0.00000000
Fe       6.08818939       1.17167259       1.65699527  F        6       0.00000000       0.00000000       0.00000000
Fe      10.14698231       1.17167259       1.65699527  F        6       0.00000000       0.00000000       0.00000000
Fe       4.05879292       4.68669037       1.65699527  F        6       0.00000000       0.00000000       0.00000000
Fe       8.11758585       4.68669037       1.65699527  F        6       0.00000000       0.00000000       0.00000000
Fe      12.17637877       4.68669037       1.65699527  F        6       0.00000000       0.00000000       0.00000000
Fe       6.08818939       8.20170816       1.65699527  F        6       0.00000000       0.00000000       0.00000000
Fe      10.14698231       8.20170816       1.65699527  F        6       0.00000000       0.00000000       0.00000000
Fe      14.20577523       8.20170816       1.65699527  F        6       0.00000000       0.00000000       0.00000000
Fe      12.38714661       2.53265065       2.17879962  T        5       0.16230280       0.93772289       0.07809621
Fe       3.91800942       2.58677096       2.30064113  T        5      -0.26361781       1.60957656       1.00584922
Fe       8.15407185       2.35236974       2.22205955  T        5      -0.01735193      -0.56968200       0.92165729
Fe      14.40090834       5.95186484       2.06325855  T        5       1.69395868       0.23334614      -1.21691540
Fe       6.03226853       5.46913176       2.30503417  T        5      -0.21432325      -1.47500542       0.85110438
Fe      10.20121969       5.34717046       2.20385581  T        5       0.61846993       0.90449983       1.07959837
Fe      16.40932522       9.40875726       2.38089958  T        5       1.15331743      -0.45279682       0.27236439
Fe       7.91765478       9.33647533       2.35184838  T        5      -0.73545405       0.00306122       0.83843348
Fe      11.93868379       9.21690731       2.19454959  T        5      -1.40107211      -1.69686715      -1.11044587
Fe       0.21320056       0.24585611       2.98211387  T        4       0.43432972      -0.33841220      -0.95511540
Fe       3.99771102       0.28382756       2.94060006  T        4       0.05727202      -0.12882631      -0.60323249
Fe       8.10689349       0.13548781       3.03796245  T        4      -0.47446669      -1.58366225       1.75711470
Fe      14.11412673       3.95354859       3.21230998  T        4      -2.04039042      -0.74593603       0.05163409
Fe       6.09059423       3.06075851       3.27721326  T        4      -0.00166142       0.24801886       2.82519756
Fe      10.03618222       3.38724204       3.09746457  T        4       0.52176512      -1.65114657      -2.96323059
Fe       4.22043691       7.00471301       3.05728336  T        4      -0.94632563      -0.34346405       0.40082668
Fe       7.95688330       6.79112779       2.93317968  T        4      -1.36392096       0.78054563      -0.44215481
Fe      12.01114185       6.77727739       3.02317658  T        4       1.38269540      -2.60364027       0.46987774
Fe       2.02303120       1.66033936       3.95614647  T        3       0.50803456       1.25426248      -0.24646701
Fe       6.05311170       0.82564157       3.90990380  T        3       1.69138397       0.23947949      -1.01700021
Fe      10.23066814       0.72812475       4.03858506  T        3      -1.30095962      -0.38682347      -0.11090435
Fe       4.15795649       4.69425776       3.96723285  T        3      -0.18475337      -0.78373747       0.83586420
Fe       8.35480763       4.80459143       3.89391589  T        3       0.40621727       0.80192656       0.95513873
Fe      12.00597744       4.78449055       4.06547654  T        3       1.33881182       0.75837856       2.02694404
Fe       6.43605052       8.44498006       4.10871613  T        3       2.58902472      -1.15188392       1.39822553
Fe      10.00888406       8.44948691       3.93974152  T        3       0.52487480      -0.24746861      -0.16220372
Fe      14.31286088       7.86689592       4.04693885  T        3       0.77219308      -0.63828819       1.11854205
Fe      12.03487312       2.05395690       4.41570366  T        2       0.22180213      -0.90749525      -0.24718708
Fe       4.14446591       2.09902257       4.59546164  T        2      -1.39990323      -1.38933545       1.77095935
Fe       8.24548231       2.31342985       4.58610623  T        2       0.97297114       0.65623505       0.64173438
Fe      14.33145186       5.49418110       4.70650067  T        2       1.11914678       1.80627211       2.81330897
Fe       6.09262081       5.97874049       4.56611651  T        2      -1.39113059      -0.09375387       0.71080222
Fe       9.99267124       6.11118163       4.54159717  T        2       0.13939688       1.75414705      -0.00387720
Fe      16.24363394       8.95702145       4.66865178  T        2      -0.62774035      -0.82948233       0.90519356
Fe       8.34771507      10.04457559       4.50701064  T        2       2.99053192       1.69477680       0.59600124
Fe      12.31586665       9.02527410       4.39423862  T        2       1.95221183       0.37064924      -2.60853329
Fe      17.94570208      10.22993707       5.14536671  T        1       1.64418587       0.15720890       1.36619562
Fe      10.58933451      10.42753410       5.16195834  T        1       0.86947346       1.14395319      -0.24225195
Fe      14.31504383       9.95450647       5.28353469  T        1       1.56507614      -0.07990164       1.57383135
Fe       2.09379335       3.35246306       5.44716488  T        1       1.00677349      -0.16591574       2.77375376
Fe       6.27660718       4.15268904       5.45413813  T        1       0.87923878       0.75115127       1.51035391
Fe      10.07026657       3.84019550       5.16911715  T        1       2.57591178      -0.90022379       2.70522504
Fe       4.20091107       6.83776322       5.36649663  T        1       5.24747261       1.40636818       1.32513823
Fe       8.25777465       7.55214838       5.13599581  T        1       1.93232619      -1.28263392      -1.68063751
Fe      12.49035059       6.87115983       5.28586493  T        1       1.22984396       2.19119405      -0.37026363
N        7.59181756       3.30508680       6.36115439  T        0      -0.21222577       0.71153820       0.23343583
N        8.78494344       3.31591974       6.38900359  T        0      -0.17516305      -0.43070063       0.37462295
74
Lattice="12.176378772032349 0.0 0.0 6.088189386016174 10.545053342681582 0.0 0.0 0.0 20.0" Properties=species:S:1:pos:R:3:move_mask:L:1:tags:I:1:momenta:R:3 pbc="T T F"
Fe      12.17637877       2.34334519       0.00000000  F        8       0.00000000       0.00000000       0.00000000
Fe       4.05879292       2.34334519       0.00000000  F        8       0.00000000       0.00000000       0.00000000
Fe       8.11758585       2.34334519       0.00000000  F        8       0.00000000       0.00000000       0.00000000
Fe      14.20577523       5.85836297       0.00000000  F        8       0.00000000       0.00000000       0.00000000
Fe       6.08818939       5.85836297       0.00000000  F        8       0.00000000       0.00000000       0.00000000
Fe      10.14698231       5.85836297       0.00000000  F        8       0.00000000       0.00000000       0.00000000
Fe      16.23517169       9.37338075       0.00000000  F        8       0.00000000       0.00000000       0.00000000
Fe       8.11758585       9.37338075       0.00000000  F        8       0.00000000       0.00000000       0.00000000
Fe      12.17637877       9.37338075       0.00000000  F        8       0.00000000       0.00000000       0.00000000
Fe       0.00000000       0.00000000       0.82849764  F        7       0.00000000       0.00000000       0.00000000
Fe       4.05879292       0.00000000       0.82849764  F        7       0.00000000       0.00000000       0.00000000
Fe       8.11758585       0.00000000       0.82849764  F        7       0.00000000       0.00000000       0.00000000
Fe       2.02939646       3.51501778       0.82849764  F        7       0.00000000       0.00000000       0.00000000
Fe       6.08818939       3.51501778       0.82849764  F        7       0.00000000       0.00000000       0.00000000
Fe      10.14698231       3.51501778       0.82849764  F        7       0.00000000       0.00000000       0.00000000
Fe       4.05879292       7.03003556       0.82849764  F        7       0.00000000       0.00000000       0.00000000
Fe       8.11758585       7.03003556       0.82849764  F        7       0.00000000       0.00000000       0.00000000
Fe      12.17637877       7.03003556       0.82849764  F        7       0.00000000       0.00000000       0.00000000
Fe       2.02939646       1.17167259       1.65699527  F        6       0.00000000       0.00000000       0.00000000
Fe       6.08818939       1.17167259       1.65699527  F        6       0.00000000       0.00000000       0.00000000
Fe      10.14698231       1.17167259       1.65699527  F        6       0.00000000       0.00000000       0.00000000
Fe       4.05879292       4.68669037       1.65699527  F        6       0.00000000       0.00000000       0.00000000
Fe       8.11758585       4.68669037       1.65699527  F        6       0.00000000       0.00000000       0.00000000
Fe      12.17637877       4.68669037       1.65699527  F        6       0.00000000       0.00000000       0.00000000
Fe       6.08818939       8.20170816       1.65699527  F        6       0.00000000       0.00000000       0.00000000
Fe      10.14698231       8.20170816       1.65699527  F        6       0.00000000       0.00000000       0.00000000
Fe      14.20577523       8.20170816       1.65699527  F        6       0.00000000       0.00000000       0.00000000
Fe      12.38728021       2.53347429       2.17887271  T        5       0.14163967       0.93612394       0.08818035
Fe       3.91777540       2.58818345       2.30152178  T        5      -0.26878949       1.60405258       0.99794028
Fe       8.15405032       2.35186728       2.22286278  T        5      -0.03168065      -0.57359749       0.90590345
Fe      14.40238163       5.95207867       2.06220427  T        5       1.65809484       0.25300643      -1.18165051
Fe       6.03208849       5.46784228       2.30578002  T        5      -0.19530643      -1.45891489       0.84592778
Fe      10.20175846       5.34801726       2.20481770  T        5       0.60726282       1.02190536       1.10888279
Fe      16.41033050       9.40835715       2.38113062  T        5       1.13400587      -0.45758287       0.25335464
Fe       7.91703422       9.33647029       2.35257381  T        5      -0.67642944      -0.01448031       0.81213667
Fe      11.93746997       9.21543183       2.19357946  T        5      -1.36063180      -1.66025962      -1.09692532
Fe       0.21357566       0.24555334       2.98128440  T        4       0.41903729      -0.35045615      -0.93186961
Fe       3.99774740       0.28370702       2.94008487  T        4       0.02560312      -0.14530619      -0.56896883
Fe       8.10647350       0.13408395       3.03951415  T        4      -0.48114185      -1.61060525       1.77324195
Fe      14.11232777       3.95287923       3.21234034  T        4      -2.05261175      -0.77645070       0.01809870
Fe       6.09059486       3.06099214       3.27970044  T        4       0.00304737       0.28348181       2.83378901
Fe      10.03665693       3.38574418       3.09485708  T        4       0.55815360      -1.75623801      -2.96840681
Fe       4.21961389       7.00441457       3.05764081  T        4      -0.92629643      -0.33561085       0.41242083
Fe       7.95569374       6.79183406       2.93280390  T        4      -1.34273341       0.82618330      -0.41300607
Fe      12.01235374       6.77500996       3.02359952  T        4       1.37476995      -2.55521116       0.49227704
Fe       2.02348315       1.66143209       3.95592345  T        3       0.52018774       1.23206457      -0.26095708
Fe       6.05461582       0.82585782       3.90901388  T        3       1.73074075       0.25262046      -1.00779588
Fe      10.22950686       0.72779527       4.03848332  T        3      -1.34092569      -0.36299203      -0.12039775
Fe       4.15780971       4.69355993       3.96797273  T        3      -0.14944150      -0.80401416       0.84757584
Fe       8.35513770       4.80528354       3.89476571  T        3       0.34530554       0.77270935       0.97835542
Fe      12.00715775       4.78514665       4.06726240  T        3       1.34668677       0.73428192       2.03650240
Fe       6.43832814       8.44395812       4.10993375  T        3       2.59301346      -1.17292484       1.37236205
Fe      10.00934214       8.44926457       3.93959538  T        3       0.51754934      -0.25827587      -0.17032004
Fe      14.31353106       7.86633088       4.04791419  T        3       0.75272366      -0.64732353       1.10065738
Fe      12.03506031       2.05318284       4.41549478  T        2       0.20404425      -0.85387092      -0.22804316
Fe       4.14323871       2.09781449       4.59701804  T        2      -1.39232897      -1.35940634       1.77033647
Fe       8.24633022       2.31399844       4.58666403  T        2       0.95642883       0.63761663       0.62752288
Fe      14.33242729       5.49578591       4.70898422  T        2       1.10029067       1.84446696       2.83705021
Fe       6.09140434       5.97867932       4.56673121  T        2      -1.37649777      -0.04549770       0.68774349
Fe       9.99280164       6.11273507       4.54158319  T        2       0.15734020       1.77992321      -0.02793819
Fe      16.24307513       8.95628963       4.66944633  T        2      -0.64337452      -0.83535940       0.90265458
Fe       8.35033717      10.04605581       4.50753630  T        2       2.97547199       1.67314154       0.60006021
Fe      12.31758535       9.02559685       4.39195076  T        2       1.95833581       0.36381566      -2.59706140
Fe      17.94715706      10.23008514       5.14658183  T        1       1.66606148       0.17958774       1.39798670
Fe      10.59009359      10.42852948       5.16174982  T        1       0.85779451       1.12082066      -0.23224177
Fe      14.31641970       9.95443600       5.28489653  T        1       1.56549902      -0.08046514       1.52485849
Fe       2.09467919       3.35232121       5.44958652  T        1       1.00881864      -0.15668589       2.73584683
Fe       6.27737396       4.15332711       5.45544788  T        1       0.86515288       0.70076172       1.46966260
Fe      10.07253917       3.83940809       5.17152166  T        1       2.59460928      -0.89150142       2.76474386
Fe       4.20551559       6.83899366       5.36765195  T        1       5.22915796       1.39333038       1.30370254
Fe       8.25947013       7.55102299       5.13451310  T        1       1.92532863      -1.27792279      -1.69266200
Fe      12.49143569       6.87308276       5.28552628  T        1       1.23906026       2.18406278      -0.40005856
N        7.59084922       3.30759034       6.36199329  T        0      -0.33889542       0.71721885       0.24538788
N        8.78458033       3.31439395       6.39030347  T        0      -0.03300925      -0.44013836       0.36707323
74
Lattice="12.176378772032349 0.0 0.0 6.088189386016174 10.545053342681582 0.0 0.0 0.0 20.0" Properties=species:S:1:pos:R:3:move_mask:L:1:tags:I:1:momenta:R:3 pbc="T T F"
Fe      12.17637877       2.34334519       0.00000000  F        8       0.00000000       0.00000000       0.00000000
Fe       4.05879292       2.34334519       0.00000000  F        8       0.00000000       0.00000000       0.00000000
Fe       8.11758585       2.34334519       0.00000000  F        8       0.00000000       0.00000000       0.00000000
Fe      14.20577523       5.85836297       0.00000000  F        8       0.00000000       0.00000000       0.00000000
Fe       6.08818939       5.85836297       0.00000000  F        8       0.00000000       0.00000000       0.00000000
Fe      10.14698231       5.85836297       0.00000000  F        8       0.00000000       0.00000000       0.00000000
Fe      16.23517169       9.37338075       0.00000000  F        8       0.00000000       0.00000000       0.00000000
Fe       8.11758585       9.37338075       0.00000000  F        8       0.00000000       0.00000000       0.00000000
Fe      12.17637877       9.37338075       0.00000000  F        8       0.00000000       0.00000000       0.00000000
Fe       0.00000000       0.00000000       0.82849764  F        7       0.00000000       0.00000000       0.00000000
Fe       4.05879292       0.00000000       0.82849764  F        7       0.00000000       0.00000000       0.00000000
Fe       8.11758585       0.00000000       0.82849764  F        7       0.00000000       0.00000000       0.00000000
Fe       2.02939646       3.51501778       0.82849764  F        7       0.00000000       0.00000000       0.00000000
Fe       6.08818939       3.51501778       0.82849764  F        7       0.00000000       0.00000000       0.00000000
Fe      10.14698231       3.51501778       0.82849764  F        7       0.00000000       0.00000000       0.00000000
Fe       4.05879292       7.03003556       0.82849764  F        7       0.00000000       0.00000000       0.00000000
Fe       8.11758585       7.03003556       0.82849764  F        7       0.00000000       0.00000000       0.00000000
Fe      12.17637877       7.03003556       0.82849764  F        7       0.00000000       0.00000000       0.00000000
Fe       2.02939646       1.17167259       1.65699527  F        6       0.00000000       0.00000000       0.00000000
Fe       6.08818939       1.17167259       1.65699527  F        6       0.00000000       0.00000000       0.00000000
Fe      10.14698231       1.17167259       1.65699527  F        6       0.00000000       0.00000000       0.00000000
Fe       4.05879292       4.68669037       1.65699527  F        6       0.00000000       0.00000000       0.00000000
Fe       8.11758585       4.68669037       1.65699527  F        6       0.00000000       0.00000000       0.00000000
Fe      12.17637877       4.68669037       1.65699527  F        6       0.00000000       0.00000000       0.00000000
Fe       6.08818939       8.20170816       1.65699527  F        6       0.00000000       0.00000000       0.00000000
Fe      10.14698231       8.20170816       1.65699527  F        6       0.00000000       0.00000000       0.00000000
Fe      14.20577523       8.20170816       1.65699527  F        6       0.00000000       0.00000000       0.00000000
Fe      12.38739811       2.53431286       2.17895620  T        5       0.12374447       0.95284899       0.09998671
Fe       3.91753215       2.58961917       2.30241311  T        5      -0.27921775       1.63021864       1.01013002
Fe       8.15401560       2.35135125       2.22366810  T        5      -0.04671175      -0.58901298       0.90823012
Fe      14.40385250       5.95231408       2.06116038  T        5       1.65517566       0.27736481      -1.16954800
Fe       6.03192174       5.46654126       2.30653623  T        5      -0.18014744      -1.47194406       0.85768145
Fe      10.20229796       5.34898498       2.20582478  T        5       0.60792201       1.15904828       1.16013771
Fe      16.41133880       9.40794476       2.38134944  T        5       1.13740662      -0.47154907       0.23947661
Fe       7.91645369       9.33644962       2.35329044  T        5      -0.63081063      -0.03223135       0.80210911
Fe      11.93626781       9.21395930       2.19260186  T        5      -1.34722767      -1.65681192      -1.10540984
Fe       0.21394461       0.24523383       2.98045922  T        4       0.41192340      -0.36947617      -0.92660617
Fe       3.99775648       0.28356955       2.93958978  T        4      -0.00535345      -0.16441865      -0.54606416
Fe       8.10603916       0.13262797       3.04111107  T        4      -0.49742728      -1.66988936       1.82441915
Fe      14.11048205       3.95216990       3.21234212  T        4      -2.10558444      -0.82126604      -0.01376353
Fe       6.09059964       3.06126187       3.28224502  T        4       0.00771749       0.32443608       2.89886901
Fe      10.03717330       3.38412361       3.09219377  T        4       0.60533517      -1.89503196      -3.03060699
Fe       4.21879215       7.00411709       3.05801566  T        4      -0.92478962      -0.33453288       0.43212435
Fe       7.95449910       6.79259478       2.93244634  T        4      -1.34852208       0.88782554      -0.39243364
Fe      12.01358293       6.77274028       3.02405069  T        4       1.39442648      -2.55741815       0.52422884
Fe       2.02395486       1.66252705       3.95568311  T        3       0.54258214       1.23456182      -0.28064354
Fe       6.05618485       0.82609013       3.90811433  T        3       1.80430989       0.27098214      -1.01866213
Fe      10.22828716       0.72748021       4.03837128  T        3      -1.40696116      -0.34672748      -0.13192272
Fe       4.15769114       4.69283013       3.96873783  T        3      -0.11758150      -0.84036416       0.87619332
Fe       8.35542077       4.80596348       3.89565309  T        3       0.29233734       0.75871838       1.02097197
Fe      12.00836865       4.78579436       4.06909261  T        3       1.38137604       0.72454429       2.08696559
Fe       6.44065476       8.44289738       4.11115294  T        3       2.64842573      -1.21657967       1.37425398
Fe      10.00980304       8.44902831       3.93943909  T        3       0.52089572      -0.27396531      -0.18188745
Fe      14.31419744       7.86574651       4.04889321  T        3       0.74841845      -0.66926127       1.10483159
Fe      12.03523543       2.05244074       4.41529874  T        2       0.19026326      -0.81761723      -0.21339761
Fe       4.14199365       2.09660877       4.59860511  T        2      -1.41257890      -1.35665692       1.80517445
Fe       8.24718057       2.31456202       4.58722048  T        2       0.95929383       0.63205550       0.62615619
Fe      14.33340557       5.49745619       4.71153822  T        2       1.10355106       1.91819793       2.91662150
Fe       6.09017666       5.97865970       4.56733769  T        2      -1.38896933       0.00169751       0.67828624
Fe       9.99295062       6.11434211       4.54154756  T        2       0.17853859       1.84033166      -0.05257052
Fe      16.24249155       8.95553816       4.67025456  T        2      -0.67115778      -0.85742236       0.91818741
Fe       8.35299841      10.04754648       4.50807613  T        2       3.01981834       1.68495554       0.61618234
Fe      12.31934393       9.02592010       4.38962720  T        2       2.00359520       0.36450236      -2.63761059
Fe      17.94866039      10.23025595       5.14784902  T        1       1.72071389       0.20533824       1.45658775
Fe      10.59085764      10.42952427       5.16154596  T        1       0.86357146       1.12009109      -0.22699137
Fe      14.31782358       9.95436359       5.28624227  T        1       1.59737389      -0.08267819       1.50659206
Fe       2.09558464       3.35218485       5.45202273  T        1       1.03113016      -0.15029126       2.75193867
Fe       6.27814337       4.15393333       5.45674771  T        1       0.86788886       0.66461390       1.45831250
Fe      10.07487364       3.83861252       5.17402631  T        1       2.66452294      -0.90086351       2.87756881
Fe       4.21019613       6.84023726       5.36881152  T        1       5.31542328       1.40830323       1.30864630
Fe       8.26119332       7.54987926       5.13299027  T        1       1.95671463      -1.29870981      -1.73791926
Fe      12.49255070       6.87503792       5.28515457  T        1       1.27298857       2.22067562      -0.43744338
N        7.58941841       3.31016423       6.36289157  T        0      -0.46770522       0.73724789       0.26238382
N        8.78470976       3.31280386       6.39160222  T        0       0.10496159      -0.45856938       0.36650784
74
Lattice="12.176378772032349 0.0 0.0 6.088189386016174 10.545053342681582 0.0 0.0 0.0 20.0" Properties=species:S:1:pos:R:3:move_mask:L:1:tags:I:1:momenta:R:3 pbc="T T F"
Fe      12.17637877       2.34334519       0.00000000  F        8       0.00000000       0.00000000       0.00000000
Fe       4.05879292       2.34334519       0.00000000  F        8       0.00000000       0.00000000       0.00000000
Fe       8.11758585       2.34334519       0.00000000  F        8       0.00000000       0.00000000       0.00000000
Fe      14.20577523       5.85836297       0.00000000  F        8       0.00000000       0.00000000       0.00000000
Fe       6.08818939       5.85836297       0.00000000  F        8       0.00000000       0.00000000       0.00000000
Fe      10.14698231       5.85836297       0.00000000  F        8       0.00000000       0.00000000       0.00000000
Fe      16.23517169       9.37338075       0.00000000  F        8       0.00000000       0.00000000       0.00000000
Fe       8.11758585       9.37338075       0.00000000  F        8       0.00000000       0.00000000       0.00000000
Fe      12.17637877       9.37338075       0.00000000  F        8       0.00000000       0.00000000       0.00000000
Fe       0.00000000       0.00000000       0.82849764  F        7       0.00000000       0.00000000       0.00000000
Fe       4.05879292       0.00000000       0.82849764  F        7       0.00000000       0.00000000       0.00000000
Fe       8.11758585       0.00000000       0.82849764  F        7       0.00000000       0.00000000       0.00000000
Fe       2.02939646       3.51501778       0.82849764  F        7       0.00000000       0.00000000       0.00000000
Fe       6.08818939       3.51501778       0.82849764  F        7       0.00000000       0.00000000       0.00000000
Fe      10.14698231       3.51501778       0.82849764  F        7       0.00000000       0.00000000       0.00000000
Fe       4.05879292       7.03003556       0.82849764  F        7       0.00000000       0.00000000       0.00000000
Fe       8.11758585       7.03003556       0.82849764  F        7       0.00000000       0.00000000       0.00000000
Fe      12.17637877       7.03003556       0.82849764  F        7       0.00000000       0.00000000       0.00000000
Fe       2.02939646       1.17167259       1.65699527  F        6       0.00000000       0.00000000       0.00000000
Fe       6.08818939       1.17167259       1.65699527  F        6       0.00000000       0.00000000       0.00000000
Fe      10.14698231       1.17167259       1.65699527  F        6       0.00000000       0.00000000       0.00000000
Fe       4.05879292       4.68669037       1.65699527  F        6       0.00000000       0.00000000       0.00000000
Fe       8.11758585       4.68669037       1.65699527  F        6       0.00000000       0.00000000       0.00000000
Fe      12.17637877       4.68669037       1.65699527  F        6       0.00000000       0.00000000       0.00000000
Fe       6.08818939       8.20170816       1.65699527  F        6       0.00000000       0.00000000       0.00000000
Fe      10.14698231       8.20170816       1.65699527  F        6       0.00000000       0.00000000       0.00000000
Fe      14.20577523       8.20170816       1.65699527  F        6       0.00000000       0.00000000       0.00000000
Fe      12.38749765       2.53514862       2.17904841  T        5       0.10282268       0.94943522       0.10988211
Fe       3.91728476       2.59104804       2.30329676  T        5      -0.28385575       1.62218146       1.00143528
Fe       8.15396824       2.35083227       2.22445870  T        5      -0.06113104      -0.59236326       0.89143837
Fe      14.40529007       5.95256605       2.06014916  T        5       1.61712762       0.29600179      -1.13210583
Fe       6.03177194       5.46525580       2.30728712  T        5      -0.16084823      -1.45418037       0.85162271
Fe      10.20282669       5.35005392       2.20685628  T        5       0.59551061       1.27376315       1.18777763
Fe      16.41232913       9.40752855       2.38155142  T        5       1.11695757      -0.47589092       0.22034667
Fe       7.91592577       9.33641366       2.35398326  T        5      -0.57088193      -0.04957232       0.77502242
Fe      11.93510265       9.21252051       2.19163705  T        5      -1.30501094      -1.61836112      -1.09085585
Fe       0.21429949       0.24490411       2.97965618  T        4       0.39579505      -0.38106102      -0.90106564
Fe       3.99773799       0.28341811       2.93912534  T        4      -0.03660498      -0.18016887      -0.51118715
Fe       8.10559943       0.13114965       3.04271998  T        4      -0.50355033      -1.69532912       1.83777702
Fe      14.10862788       3.95143612       3.21231616  T        4      -2.11496657      -0.84844215      -0.04465350
Fe       6.09060842       3.06156224       3.28479428  T        4       0.01221983       0.35919221       2.90401537
Fe      10.03772062       3.38241426       3.08953175  T        4       0.64033932      -1.99522245      -3.02789137
Fe       4.21798886       7.00382674       3.05840013  T        4      -0.90377292      -0.32645490       0.44297954
Fe       7.95332414       6.79339413       2.93211433  T        4      -1.32614864       0.93146891      -0.36351101
Fe      12.01480401       6.77051611       3.02452068  T        4       1.38519936      -2.50534965       0.54548034
Fe       2.02443656       1.66360144       3.95543031  T        3       0.55382828       1.21116565      -0.29479135
Fe       6.05778632       0.82633398       3.90722390  T        3       1.84093655       0.28417059      -1.00821394
Fe      10.22703458       0.72718601       4.03825151  T        3      -1.44392629      -0.32315243      -0.14052751
Fe       4.15760310       4.69208326       3.96951237  T        3      -0.08308811      -0.85973116       0.88688024
Fe       8.35565139       4.80661674       3.89655974  T        3       0.23320585       0.72824021       1.04276974
Fe      12.00958508       4.78641980       4.07092957  T        3       1.38756896       0.69903913       2.09466016
Fe       6.44298191       8.44182037       4.11234857  T        3       2.64872996      -1.23462799       1.34755481
Fe      10.01025745       8.44878316       3.93927577  T        3       0.51366783      -0.28390972      -0.18990465
Fe      14.31484617       7.86515487       4.04985558  T        3       0.72838441      -0.67749614       1.08586989
Fe      12.03539463       2.05174613       4.41511981  T        2       0.17209929      -0.76372882      -0.19391203
Fe       4.14075655       2.09543060       4.60019006  T        2      -1.40346600      -1.32528138       1.80274853
Fe       8.24801588       2.31510908       4.58776430  T        2       0.94228408       0.61346035       0.61205955
Fe      14.33436643       5.49915653       4.71410926  T        2       1.08375504       1.95164514       2.93544699
Fe       6.08896367       5.97868230       4.56792308  T        2      -1.37199781       0.04963727       0.65419653
Fe       9.99311536       6.11596887       4.54149081  T        2       0.19651693       1.86221146      -0.07660884
Fe      16.24189578       8.95478299       4.67105975  T        2      -0.68463456      -0.86134310       0.91471245
Fe       8.35564354      10.04901658       4.50861904  T        2       3.00135630       1.66150767       0.61971475
Fe      12.32110603       9.02623735       4.38731600  T        2       2.00753428       0.35777886      -2.62351003
Fe      17.95018067      10.23044596       5.14914132  T        1       1.73967055       0.22705818       1.48452520
Fe      10.59161104      10.43049769       5.16135095  T        1       0.85159090       1.09575278      -0.21697556
Fe      14.31922657       9.95429072       5.28754388  T        1       1.59639164      -0.08323120       1.45645370
Fe       2.09649108       3.35205712       5.45442218  T        1       1.03226579      -0.14030596       2.70968796
Fe       6.27889899       4.15449496       5.45801040  T        1       0.85196087       0.61398446       1.41598969
Fe      10.07722122       3.83782511       5.17657807  T        1       2.67899160      -0.89169281       2.93008929
Fe       4.21485575       6.84146831       5.36995148  T        1       5.29146542       1.39407103       1.28644905
Fe       8.26290843       7.54874092       5.13145926  T        1       1.94739791      -1.29249903      -1.74684825
Fe      12.49367256       6.87698489       5.28475761  T        1       1.28071789       2.21131992      -0.46593786
N        7.58757259       3.31275533       6.36383149  T        0      -0.58151100       0.74206280       0.27429903
N        8.78531566       3.31118132       6.39287114  T        0       0.23688832      -0.46789375       0.35767727
74
Lattice="12.176378772032349 0.0 0.0 6.088189386016174 10.545053342681582 0.0 0.0 0.0 20.0" Properties=species:S:1:pos:R:3:move_mask:L:1:tags:I:1:momenta:R:3 pbc="T T F"
Fe      12.17637877       2.34334519       0.00000000  F        8       0.00000000       0.00000000       0.00000000
Fe       4.05879292       2.34334519       0.00000000  F        8       0.00000000       0.00000000       0.00000000
Fe       8.11758585       2.34334519       0.00000000  F        8       0.00000000       0.00000000       0.00000000
Fe      14.20577523       5.85836297       0.00000000  F        8       0.00000000       0.00000000       0.00000000
Fe       6.08818939       5.85836297       0.00000000  F        8       0.00000000       0.00000000       0.00000000
Fe      10.14698231       5.85836297       0.00000000  F        8       0.00000000       0.00000000       0.00000000
Fe      16.23517169       9.37338075       0.00000000  F        8       0.00000000       0.00000000       0.00000000
Fe       8.11758585       9.37338075       0.00000000  F        8       0.00000000       0.00000000       0.00000000
Fe      12.17637877       9.37338075       0.00000000  F        8       0.00000000       0.00000000       0.00000000
Fe       0.00000000       0.00000000       0.82849764  F        7       0.00000000       0.00000000       0.00000000
Fe       4.05879292       0.00000000       0.82849764  F        7       0.00000000       0.00000000       0.00000000
Fe       8.11758585       0.00000000       0.82849764  F        7       0.00000000       0.00000000       0.00000000
Fe       2.02939646       3.51501778       0.82849764  F        7       0.00000000       0.00000000       0.00000000
Fe       6.08818939       3.51501778       0.82849764  F        7       0.00000000       0.00000000       0.00000000
Fe      10.14698231       3.51501778       0.82849764  F        7       0.00000000       0.00000000       0.00000000
Fe       4.05879292       7.03003556       0.82849764  F        7       0.00000000       0.00000000       0.00000000
Fe       8.11758585       7.03003556       0.82849764  F        7       0.00000000       0.00000000       0.00000000
Fe      12.17637877       7.03003556       0.82849764  F        7       0.00000000       0.00000000       0.00000000
Fe       2.02939646       1.17167259       1.65699527  F        6       0.00000000       0.00000000       0.00000000
Fe       6.08818939       1.17167259       1.65699527  F        6       0.00000000       0.00000000       0.00000000
Fe      10.14698231       1.17167259       1.65699527  F        6       0.00000000       0.00000000       0.00000000
Fe       4.05879292       4.68669037       1.65699527  F        6       0.00000000       0.00000000       0.00000000
Fe       8.11758585       4.68669037       1.65699527  F        6       0.00000000       0.00000000       0.00000000
Fe      12.17637877       4.68669037       1.65699527  F        6       0.00000000       0.00000000       0.00000000
Fe       6.08818939       8.20170816       1.65699527  F        6       0.00000000       0.00000000       0.00000000
Fe      10.14698231       8.20170816       1.65699527  F        6       0.00000000       0.00000000       0.00000000
Fe      14.20577523       8.20170816       1.65699527  F        6       0.00000000       0.00000000       0.00000000
Fe      12.38758007       2.53599297       2.17915065  T        5       0.08330837       0.95895436       0.12126951
Fe       3.91702984       2.59248978       2.30418524  T        5      -0.29236065       1.63655292       1.00697228
Fe       8.15390742       2.35030300       2.22524559  T        5      -0.07646765      -0.60406794       0.88715378
Fe      14.40671417       5.95283789       2.05915701  T        5       1.60163793       0.31840757      -1.11015069
Fe       6.03163711       5.46396795       2.30804326  T        5      -0.14379199      -1.45682015       0.85755567
Fe      10.20335177       5.35123903       2.20792667  T        5       0.59119913       1.40543318       1.23187047
Fe      16.41331536       9.40710263       2.38173937  T        5       1.11226564      -0.48694131       0.20440734
Fe       7.91544345       9.33636189       2.35466192  T        5      -0.51893725      -0.06749922       0.75889702
Fe      11.93395847       9.21109545       2.19067148  T        5      -1.28101156      -1.60265579      -1.09172264
Fe       0.21464501       0.24455951       2.97886469  T        4       0.38505468      -0.39795209      -0.88755705
Fe       3.99769170       0.28325072       2.93868519  T        4      -0.06811547      -0.19814455      -0.48352377
Fe       8.10514808       0.12962792       3.04436320  T        4      -0.51673073      -1.74471106       1.87652065
Fe      14.10673940       3.95066850       3.21226310  T        4      -2.15374795      -0.88626589      -0.07481567
Fe       6.09062126       3.06189749       3.28738396  T        4       0.01679185       0.39876785       2.94978181
Fe      10.03830644       3.38059287       3.08683562  T        4       0.68393108      -2.12183080      -3.06541125
Fe       4.21719284       7.00353940       3.05879956  T        4      -0.89547503      -0.32304343       0.45990321
Fe       7.95215235       6.79424311       2.93180307  T        4      -1.32255633       0.98760726      -0.34006283
Fe      12.01603418       6.76830682       3.02501597  T        4       1.39554006      -2.48809185       0.57406960
Fe       2.02493492       1.66467032       3.95516144  T        3       0.57266952       1.20487423      -0.31304512
Fe       6.05944257       0.82659300       3.90633019  T        3       1.90296665       0.30150234      -1.01187245
Fe      10.22573199       0.72690836       4.03812260  T        3      -1.50037409      -0.30446889      -0.15072983
Fe       4.15754410       4.69130875       3.97030725  T        3      -0.05029474      -0.89114159       0.90996422
Fe       8.35583345       4.80725217       3.89749837  T        3       0.17847805       0.70780042       1.07902600
Fe      12.01082409       4.78703138       4.07279932  T        3       1.41317691       0.68308464       2.13195303
Fe       6.44534194       8.44071259       4.11353757  T        3       2.68581231      -1.26913670       1.34013696
Fe      10.01071202       8.44852590       3.93910304  T        3       0.51400165      -0.29753896      -0.20063563
Fe      14.31548638       7.86454762       4.05081477  T        3       0.71873553      -0.69519243       1.08223816
Fe      12.03553997       2.05108925       4.41495560  T        2       0.15627608      -0.72095398      -0.17712847
Fe       4.13951008       2.09426355       4.60179525  T        2      -1.41406882      -1.31257166       1.82571584
Fe       8.24884804       2.31564760       4.58830358  T        2       0.93879613       0.60397021       0.60724036
Fe      14.33532338       5.50090982       4.71673279  T        2       1.07933642       2.01111817       2.99459068
Fe       6.08774877       5.97874754       4.56849535  T        2      -1.37386992       0.09804720       0.63916259
Fe       9.99329838       6.11763748       4.54141199  T        2       0.21736144       1.90924664      -0.10172590
Fe      16.24128002       8.95401393       4.67187323  T        2      -0.70698373      -0.87683456       0.92411255
Fe       8.35830960      10.05048668       4.50917277  T        2       3.02499698       1.66142088       0.63201915
Fe      12.32289645       9.02655323       4.38498464  T        2       2.03965103       0.35635002      -2.64638508
Fe      17.95173891      10.23065775       5.15047603  T        1       1.78249916       0.25172413       1.53212871
Fe      10.59236461      10.43146331       5.16116200  T        1       0.85191608       1.08684118      -0.21014600
Fe      14.32064855       9.95421631       5.28881961  T        1       1.61799296      -0.08498618       1.42707066
Fe       2.09741134       3.35193656       5.45681779  T        1       1.04800248      -0.13200824       2.70486247
Fe       6.27965100       4.15501984       5.45925344  T        1       0.84761786       0.57228868       1.39359112
Fe      10.07961438       3.83703459       5.17921139  T        1       2.73031399      -0.89531154       3.02180635
Fe       4.21955989       6.84270420       5.37108802  T        1       5.34188237       1.39960700       1.28268644
Fe       8.26463943       7.54759206       5.12989905  T        1       1.96533554      -1.30439215      -1.77967002
Fe      12.49481705       6.87895107       5.28433005  T        1       1.30636814       2.23311878      -0.50051416
N        7.58531569       3.31539968       6.36482683  T        0      -0.69284623       0.75708884       0.29013690
N        8.78638107       3.30950274       6.39412573  T        0       0.36264155      -0.48392346       0.35318009
74
Lattice="12.176378772032349 0.0 0.0 6.088189386016174 10.545053342681582 0.0 0.0 0.0 20.0" Properties=species:S:1:pos:R:3:move_mask:L:1:tags:I:1:momenta:R:3 pbc="T T F"
Fe      12.17637877       2.34334519       0.00000000  F        8       0.00000000       0.00000000       0.00000000
Fe       4.05879292       2.34334519       0.00000000  F        8       0.00000000       0.00000000       0.00000000
Fe       8.11758585       2.34334519       0.00000000  F        8       0.00000000       0.00000000       0.00000000
Fe      14.20577523       5.85836297       0.00000000  F        8       0.00000000       0.00000000       0.00000000
Fe       6.08818939       5.85836297       0.00000000  F        8       0.00000000       0.00000000       0.00000000
Fe      10.14698231       5.85836297       0.00000000  F        8       0.00000000       0.00000000       0.00000000
Fe      16.23517169       9.37338075       0.00000000  F        8       0.00000000       0.00000000       0.00000000
Fe       8.11758585       9.37338075       0.00000000  F        8       0.00000000       0.00000000       0.00000000
Fe      12.17637877       9.37338075       0.00000000  F        8       0.00000000       0.00000000       0.00000000
Fe       0.00000000       0.00000000       0.82849764  F        7       0.00000000       0.00000000       0.00000000
Fe       4.05879292       0.00000000       0.82849764  F        7       0.00000000       0.00000000       0.00000000
Fe       8.11758585       0.00000000       0.82849764  F        7       0.00000000       0.00000000       0.00000000
Fe       2.02939646       3.51501778       0.82849764  F        7       0.00000000       0.00000000       0.00000000
Fe       6.08818939       3.51501778       0.82849764  F        7       0.00000000       0.00000000       0.00000000
Fe      10.14698231       3.51501778       0.82849764  F        7       0.00000000       0.00000000       0.00000000
Fe       4.05879292       7.03003556       0.82849764  F        7       0.00000000       0.00000000       0.00000000
Fe       8.11758585       7.03003556       0.82849764  F        7       0.00000000       0.00000000       0.00000000
Fe      12.17637877       7.03003556       0.82849764  F        7       0.00000000       0.00000000       0.00000000
Fe       2.02939646       1.17167259       1.65699527  F        6       0.00000000       0.00000000       0.00000000
Fe       6.08818939       1.17167259       1.65699527  F        6       0.00000000       0.00000000       0.00000000
Fe      10.14698231       1.17167259       1.65699527  F        6       0.00000000       0.00000000       0.00000000
Fe       4.05879292       4.68669037       1.65699527  F        6       0.00000000       0.00000000       0.00000000
Fe       8.11758585       4.68669037       1.65699527  F        6       0.00000000       0.00000000       0.00000000
Fe      12.17637877       4.68669037       1.65699527  F        6       0.00000000       0.00000000       0.00000000
Fe       6.08818939       8.20170816       1.65699527  F        6       0.00000000       0.00000000       0.00000000
Fe      10.14698231       8.20170816       1.65699527  F        6       0.00000000       0.00000000       0.00000000
Fe      14.20577523       8.20170816       1.65699527  F        6       0.00000000       0.00000000       0.00000000
Fe      12.38764372       2.53682997       2.17926103  T        5       0.06193417       0.95034013       0.13050838
Fe       3.91677216       2.59391742       2.30506229  T        5      -0.29542171       1.62027081       0.99400345
Fe       8.15383416       2.34977316       2.22601415  T        5      -0.09065683      -0.60472370       0.86627190
Fe      14.40809823       5.95312432       2.05820273  T        5       1.55595207       0.33480758      -1.06680360
Fe       6.03151983       5.46270155       2.30879068  T        5      -0.12380615      -1.43234730       0.84763204
Fe      10.20386324       5.35251808       2.20901612  T        5       0.57555185       1.51179035       1.25341023
Fe      16.41427928       9.40667480       2.38190981  T        5       1.08686408      -0.48910114       0.18453632
Fe       7.91501591       9.33629531       2.35531384  T        5      -0.45657223      -0.08430536       0.72849245
Fe      11.93285664       9.20971056       2.18972293  T        5      -1.23270958      -1.55689970      -1.07237207
Fe       0.21497460       0.24420637       2.97810002  T        4       0.36682728      -0.40762203      -0.85670634
Fe       3.99761856       0.28307070       2.93827757  T        4      -0.09853644      -0.21237169      -0.44650639
Fe       8.10469344       0.12809063       3.04601010  T        4      -0.52045764      -1.76243157       1.88043002
Fe      14.10485169       3.94988222       3.21218498  T        4      -2.15265234      -0.90684652      -0.10265805
Fe       6.09063786       3.06226140       3.28996616  T        4       0.02101493       0.43124334       2.94108904
Fe      10.03891976       3.37869404       3.08415714  T        4       0.71499479      -2.20906213      -3.04410363
Fe       4.21641882       7.00326034       3.05920649  T        4      -0.87040709      -0.31365199       0.46834548
Fe       7.95100530       6.79512571       2.93151809  T        4      -1.29443532       1.02554170      -0.31032773
Fe      12.01725082       6.76615372       3.02552720  T        4       1.38014980      -2.42388398       0.59204196
Fe       2.02544063       1.66571396       3.95488144  T        3       0.58092077       1.17614925      -0.32569183
Fe       6.06112281       0.82686261       3.90544978  T        3       1.92996497       0.31361276      -0.99668815
Fe      10.22440396       0.72665218       4.03798723  T        3      -1.52887076      -0.28021013      -0.15789764
Fe       4.15751491       4.69052082       3.97110781  T        3      -0.01664856      -0.90635987       0.91636289
Fe       8.35596432       4.80785774       3.89845160  T        3       0.12078825       0.67370308       1.09550603
Fe      12.01206281       4.78761746       4.07466754  T        3       1.41277156       0.65392957       2.13023892
Fe       6.44769096       8.43959518       4.11469824  T        3       2.67296954      -1.27960606       1.30801219
Fe      10.01115865       8.44826149       3.93892399  T        3       0.50512024      -0.30551144      -0.20783126
Fe      14.31610633       7.86393598       4.05175307  T        3       0.69572699      -0.70013281       1.05847941
Fe      12.03566863       2.05048208       4.41480924  T        2       0.13724666      -0.66454868      -0.15679763
Fe       4.13827726       2.09312925       4.60339110  T        2      -1.39849049      -1.27529627       1.81507726
Fe       8.24966188       2.31616803       4.58882898  T        2       0.91805334       0.58365261       0.59188093
Fe      14.33625883       5.50268264       4.71935970  T        2       1.05491582       2.03259056       2.99788782
Fe       6.08655485       5.97885421       4.56904373  T        2      -1.34974034       0.14507284       0.61187650
Fe       9.99349646       6.11931637       4.54131245  T        2       0.23456401       1.92037840      -0.12531044
Fe      16.24065622       8.95324563       4.67268001  T        2      -0.71573337      -0.87568564       0.91645918
Fe       8.36094729      10.05192956       4.50972717  T        2       2.99258302       1.63041457       0.63279643
Fe      12.32468217       9.02686214       4.38267607  T        2       2.03421383       0.34853999      -2.62042777
Fe      17.95330594      10.23088731       5.15182761  T        1       1.79216915       0.27180668       1.55068129
Fe      10.59310471      10.43240325       5.16098250  T        1       0.83673463       1.05760636      -0.19944902
Fe      14.32206341       9.95414171       5.29004598  T        1       1.60992949      -0.08521195       1.37100591
Fe       2.09832855       3.35182567       5.45916464  T        1       1.04454719      -0.12085573       2.64897130
Fe       6.28038513       4.15549836       5.46045379  T        1       0.82707929       0.51967132       1.34496885
Fe      10.08200831       3.83625535       5.18187622  T        1       2.73069299      -0.88256782       3.05661941
Fe       4.22422172       6.84392225       5.37220042  T        1       5.29356771       1.37935102       1.25536284
Fe       8.26635427       7.54645392       5.12833895  T        1       1.94682461      -1.29210674      -1.77915614
Fe      12.49596303       6.88090023       5.28388006  T        1       1.30798172       2.21373227      -0.52578314
N        7.58272937       3.31804762       6.36585964  T        0      -0.77990040       0.75787040       0.30084641
N        8.78785064       3.30779854       6.39533999  T        0       0.47162131      -0.49122970       0.34120566
74
Lattice="12.176378772032349 0.0 0.0 6.088189386016174 10.545053342681582 0.0 0.0 0.0 20.0" Properties=species:S:1:pos:R:3:move_mask:L:1:tags:I:1:momenta:R:3 pbc="T T F"
Fe      12.17637877       2.34334519       0.00000000  F        8       0.00000000       0.00000000       0.00000000
Fe       4.05879292       2.34334519       0.00000000  F        8       0.00000000       0.00000000       0.00000000
Fe       8.11758585       2.34334519       0.00000000  F        8       0.00000000       0.00000000       0.00000000
Fe      14.20577523       5.85836297       0.00000000  F        8       0.00000000       0.00000000       0.00000000
Fe       6.08818939       5.85836297       0.00000000  F        8       0.00000000       0.00000000       0.00000000
Fe      10.14698231       5.85836297       0.00000000  F        8       0.00000000       0.00000000       0.00000000
Fe      16.23517169       9.37338075       0.00000000  F        8       0.00000000       0.00000000       0.00000000
Fe       8.11758585       9.37338075       0.00000000  F        8       0.00000000       0.00000000       0.00000000
Fe      12.17637877       9.37338075       0.00000000  F        8       0.00000000       0.00000000       0.00000000
Fe       0.00000000       0.00000000       0.82849764  F        7       0.00000000       0.00000000       0.00000000
Fe       4.05879292       0.00000000       0.82849764  F        7       0.00000000       0.00000000       0.00000000
Fe       8.11758585       0.00000000       0.82849764  F        7       0.00000000       0.00000000       0.00000000
Fe       2.02939646       3.51501778       0.82849764  F        7       0.00000000       0.00000000       0.00000000
Fe       6.08818939       3.51501778       0.82849764  F        7       0.00000000       0.00000000       0.00000000
Fe      10.14698231       3.51501778       0.82849764  F        7       0.00000000       0.00000000       0.00000000
Fe       4.05879292       7.03003556       0.82849764  F        7       0.00000000       0.00000000       0.00000000
Fe       8.11758585       7.03003556       0.82849764  F        7       0.00000000       0.00000000       0.00000000
Fe      12.17637877       7.03003556       0.82849764  F        7       0.00000000       0.00000000       0.00000000
Fe       2.02939646       1.17167259       1.65699527  F        6       0.00000000       0.00000000       0.00000000
Fe       6.08818939       1.17167259       1.65699527  F        6       0.00000000       0.00000000       0.00000000
Fe      10.14698231       1.17167259       1.65699527  F        6       0.00000000       0.00000000       0.00000000
Fe       4.05879292       4.68669037       1.65699527  F        6       0.00000000       0.00000000       0.00000000
Fe       8.11758585       4.68669037       1.65699527  F        6       0.00000000       0.00000000       0.00000000
Fe      12.17637877       4.68669037       1.65699527  F        6       0.00000000       0.00000000       0.00000000
Fe       6.08818939       8.20170816       1.65699527  F        6       0.00000000       0.00000000       0.00000000
Fe      10.14698231       8.20170816       1.65699527  F        6       0.00000000       0.00000000       0.00000000
Fe      14.20577523       8.20170816       1.65699527  F        6       0.00000000       0.00000000       0.00000000
Fe      12.38768917       2.53766716       2.17938056  T        5       0.04121104       0.95032278       0.14088683
Fe       3.91650940       2.59534415       2.30593635  T        5      -0.30113948       1.61897862       0.99064700
Fe       8.15374771       2.34923768       2.22677167  T        5      -0.10569976      -0.61112121       0.85364619
Fe      14.40945524       5.95342771       2.05727765  T        5       1.52501642       0.35390095      -1.03332359
Fe       6.03141900       5.46144463       2.30953650  T        5      -0.10507296      -1.42149004       0.84578551
Fe      10.20436571       5.35390231       2.21013476  T        5       0.56514495       1.63088946       1.28644934
Fe      16.41523006       9.40624099       2.38206446  T        5       1.07190959      -0.49588843       0.16660101
Fe       7.91463913       9.33621337       2.35594528  T        5      -0.39878649      -0.10170936       0.70518865
Fe      11.93178684       9.20835271       2.18878232  T        5      -1.19616021      -1.52606667      -1.06333627
Fe       0.21529124       0.24384141       2.97735546  T        4       0.35198807      -0.42104661      -0.83346520
Fe       3.99751811       0.28287659       2.93789859  T        4      -0.12947623      -0.22822245      -0.41391891
Fe       8.10423121       0.12652310       3.04767589  T        4      -0.52906367      -1.79684719       1.90163545
Fe      14.10294715       3.94907094       3.21208225  T        4      -2.17156324      -0.93462858      -0.13000262
Fe       6.09065828       3.06265720       3.29256518  T        4       0.02531885       0.46740601       2.96002838
Fe      10.03956603       3.37670123       3.08147292  T        4       0.75226535      -2.31507585      -3.04939786
Fe       4.21565947       7.00298685       3.05962463  T        4      -0.85369102      -0.30735033       0.48101394
Fe       7.94987199       6.79604977       2.93125637  T        4      -1.27881038       1.07237078      -0.28403891
Fe      12.01846554       6.76403674       3.02605895  T        4       1.37797060      -2.38248770       0.61518922
Fe       2.02595831       1.66674231       3.95458768  T        3       0.59442225       1.15875023      -0.34132164
Fe       6.06284253       0.82714548       3.90457436  T        3       1.97458245       0.32877494      -0.99093486
Fe      10.22303862       0.72641472       4.03784444  T        3      -1.57086365      -0.25906784      -0.16616022
Fe       4.15751477       4.68971204       3.97192158  T        3       0.01613251      -0.93001942       0.93131447
Fe       8.35604624       4.80843901       3.89942829  T        3       0.06563103       0.64593533       1.12205624
Fe      12.01331293       4.78818338       4.07655209  T        3       1.42566455       0.63084064       2.14880697
Fe       6.45005083       8.43845835       4.11584186  T        3       2.68498547      -1.30121174       1.28873411
Fe      10.01160188       8.44798769       3.93873691  T        3       0.50140365      -0.31602171      -0.21700947
Fe      14.31671202       7.86331422       4.05267945  T        3       0.67955824      -0.71159780       1.04489847
Fe      12.03578176       2.04991854       4.41467937  T        2       0.11952974      -0.61508073      -0.13803592
Fe       4.13704640       2.09201691       4.60499281  T        2      -1.39618846      -1.25029179       1.82169084
Fe       8.25046534       2.31667580       4.58934628  T        2       0.90633932       0.56954422       0.58314487
Fe      14.33718179       5.50449057       4.72201407  T        2       1.04073004       2.07177681       3.02856534
Fe       6.08537098       5.97900311       4.56957328  T        2      -1.33800659       0.19300106       0.59035064
Fe       9.99371160       6.12102055       4.54119124  T        2       0.25402130       1.94857477      -0.14998340
Fe      16.24001913       8.95247126       4.67348773  T        2      -0.73045094      -0.88228054       0.91751257
Fe       8.36358154      10.05335893       4.51028755  T        2       2.98851384       1.61496070       0.63961456
Fe      12.32648006       9.02716724       4.38036832  T        2       2.04797985       0.34433541      -2.61945596
Fe      17.95489611      10.23113659       5.15320782  T        1       1.81814656       0.29412267       1.58260243
Fe      10.59383866      10.43332646       5.16081064  T        1       0.82988245       1.03853700      -0.19082825
Fe      14.32348471       9.95406619       5.29123487  T        1       1.61726346      -0.08626713       1.32845484
Fe       2.09925148       3.35172365       5.46148440  T        1       1.05107138      -0.11062030       2.61772886
Fe       6.28110804       4.15593533       5.46162283  T        1       0.81411922       0.47253808       1.30931044
Fe      10.08442495       3.83547980       5.18459614  T        1       2.75599314      -0.87846752       3.11825264
Fe       4.22888540       6.84513416       5.37329955  T        1       5.29547109       1.37241004       1.24040414
Fe       8.26806909       7.54531579       5.12676477  T        1       1.94667378      -1.29201654      -1.79477579
Fe      12.49712128       6.88285093       5.28340379  T        1       1.32186490       2.21542508      -0.55541844
N        7.57983794       3.32072271       6.36693987  T        0      -0.85922400       0.76528830       0.31438494
N        8.78969357       3.30605251       6.39652224  T        0       0.57102868      -0.50311003       0.33155165
