6
Properties=species:S:1:pos:R:3:move_mask:L:1:forces:R:3:energies:R:1 energy=-26135.01684777883 stress="5.084817815480736e-09 1.420152859421222e-21 6.723890125091669e-22 1.420152859421222e-21 5.085279283688594e-09 -4.569503868003478e-13 6.723890125091669e-22 -4.569503868003478e-13 9.243069889218454e-07" free_energy=-26135.01684777883 pbc="F F F"
C        0.00000000       0.00000000      -1.12138900  F      -0.00000000       0.00000187      -0.67608331   -1037.41906076
Cl       0.00000000       0.00000000       0.65211548  T       0.00000000       0.00000017      -0.00322077  -12524.60656759
H        0.00000000       1.00938855      -1.51031229  T      -0.00000000      -0.00781359       0.00177267     -16.35164903
H        0.87415612      -0.50469423      -1.51031220  T      -0.00676556       0.00390577       0.00177161     -16.35164905
H       -0.87415612      -0.50469423      -1.51031220  T       0.00676556       0.00390577       0.00177161     -16.35164905
Cl       0.00000000       0.00000000      -4.30000000  F       0.00000000       0.00000001       0.67398819  -12523.93627231
6
Properties=species:S:1:pos:R:3:move_mask:L:1:forces:R:3:energies:R:1 energy=-26135.08910588556 stress="6.075969184331502e-09 -1.1859464560456407e-21 -8.410859281117948e-22 -1.1859464560456407e-21 6.076525772421644e-09 -5.291252130763987e-13 -8.410859281117948e-22 -5.291252130763987e-13 8.934310972038807e-07" free_energy=-26135.08910588556 pbc="F F F"
C        0.00000000       0.00000000      -1.12138900  F       0.00000000       0.00000212      -0.63949170   -1037.41575535
Cl       0.00000000       0.00000000       0.65530392  T      -0.00000000       0.00000017      -0.00719470  -12524.60966775
H        0.00000000       1.00953395      -1.50836651  T      -0.00000000      -0.00876041       0.00574351     -16.34942148
H        0.87428204      -0.50476692      -1.50836642  T      -0.00758538       0.00437905       0.00574237     -16.34942150
H       -0.87428204      -0.50476692      -1.50836642  T       0.00758538       0.00437905       0.00574237     -16.34942150
Cl       0.00000000       0.00000000      -4.18888889  F       0.00000000       0.00000001       0.62945814  -12524.01541831
6
Properties=species:S:1:pos:R:3:move_mask:L:1:forces:R:3:energies:R:1 energy=-26135.15635764686 stress="-2.6750533889006317e-10 -2.277573642558221e-22 3.593374054722655e-23 -2.277573642558221e-22 -2.69844913617507e-10 7.20757154448866e-13 3.593374054722655e-23 7.20757154448866e-13 8.312502107148898e-07" free_energy=-26135.15635764686 pbc="F F F"
C        0.00000000       0.00000000      -1.12138900  F      -0.00000000      -0.00000415      -0.56986408   -1037.41321588
Cl       0.00000000       0.00000000       0.65907071  T       0.00000000       0.00000006      -0.00278785  -12524.61274652
H        0.00000000       1.01048916      -1.50276248  T       0.00000000       0.00036555      -0.00032976     -16.34601060
H        0.87510940      -0.50524464      -1.50276250  T       0.00031267      -0.00018074      -0.00032830     -16.34601059
H       -0.87510940      -0.50524464      -1.50276250  T      -0.00031267      -0.00018074      -0.00032830     -16.34601059
Cl       0.00000000       0.00000000      -4.07777778  F       0.00000000       0.00000001       0.57363827  -12524.09236346
6
Properties=species:S:1:pos:R:3:move_mask:L:1:forces:R:3:energies:R:1 energy=-26135.213870920605 stress="-7.778180370495448e-10 7.39732944354557e-21 4.390497714709216e-21 7.39732944354557e-21 -7.771501927775508e-10 -5.599785264796474e-13 4.390497714709216e-21 -5.599785264796474e-13 6.655853911605045e-07" free_energy=-26135.213870920605 pbc="F F F"
C        0.00000000       0.00000000      -1.12138900  F      -0.00000000       0.00000200      -0.44463706   -1037.40902492
Cl       0.00000000       0.00000000       0.66428239  T       0.00000000       0.00000015      -0.00214598  -12524.61575284
H        0.00000000       1.01286711      -1.49346373  T      -0.00000000       0.00097850       0.00012320     -16.34134451
H        0.87716864      -0.50643351      -1.49346364  T       0.00084875      -0.00049032       0.00012214     -16.34134453
H       -0.87716864      -0.50643351      -1.49346364  T      -0.00084875      -0.00049032       0.00012214     -16.34134453
Cl       0.00000000       0.00000000      -3.96666667  F       0.00000000      -0.00000000       0.44641556  -12524.16505959
6
Properties=species:S:1:pos:R:3:move_mask:L:1:forces:R:3:energies:R:1 energy=-26135.251966423024 stress="1.141726450821637e-08 -2.73975607994155e-23 4.8965394797460785e-23 -2.73975607994155e-23 1.1418136511479673e-08 3.913094950728516e-13 4.8965394797460785e-23 3.913094950728516e-13 3.7161903143857616e-07" free_energy=-26135.251966423024 pbc="F F F"
C        0.00000000       0.00000000      -1.12138900  F       0.00000000      -0.00000148      -0.16949082   -1037.39904814
Cl       0.00000000       0.00000000       0.67367099  T      -0.00000000      -0.00000010      -0.01851695  -12524.61853570
H        0.00000000       1.01774674      -1.47664940  T      -0.00000000      -0.01337777      -0.01645485     -16.33583652
H        0.88139447      -0.50887348      -1.47664945  T      -0.01158507       0.00668969      -0.01645416     -16.33583647
H       -0.88139447      -0.50887348      -1.47664945  T       0.01158507       0.00668969      -0.01645416     -16.33583647
Cl       0.00000000       0.00000000      -3.85555556  F       0.00000000      -0.00000002       0.23737092  -12524.22687312
6
Properties=species:S:1:pos:R:3:move_mask:L:1:forces:R:3:energies:R:1 energy=-26135.261817086746 stress="2.0406516760107813e-09 -1.2253942518786778e-22 -3.392755288163682e-23 -1.2253942518786778e-22 2.0414959429516023e-09 3.7129278226825955e-13 -3.392755288163682e-23 3.7129278226825955e-13 -7.376508263285317e-08" free_energy=-26135.261817086746 pbc="F F F"
C        0.00000000       0.00000000      -1.12138900  F       0.00000000      -0.00000137      -0.04272299   -1037.38350507
Cl       0.00000000       0.00000000       0.67900590  T      -0.00000000      -0.00000008      -0.01271070  -12524.62081007
H        0.00000000       1.01958861      -1.46990759  T       0.00000000      -0.00222697       0.04270150     -16.32621767
H        0.88298958      -0.50979440      -1.46990763  T      -0.00192823       0.00111421       0.04270210     -16.32621763
H       -0.88298958      -0.50979440      -1.46990763  T       0.00192823       0.00111421       0.04270210     -16.32621763
Cl       0.00000000       0.00000000      -3.74444444  F       0.00000000      -0.00000001      -0.07267200  -12524.27884902
6
Properties=species:S:1:pos:R:3:move_mask:L:1:forces:R:3:energies:R:1 energy=-26135.23742490893 stress="-1.9838135425342676e-09 4.2309745769386084e-22 -7.129523524536286e-24 4.2309745769386084e-22 -1.982425006094565e-09 -9.504629539132605e-13 -7.129523524536286e-24 -9.504629539132605e-13 -7.069993525075821e-07" free_energy=-26135.23742490893 pbc="F F F"
C        0.00000000       0.00000000      -1.12138900  F       0.00000000       0.00000334       0.44671968   -1037.34448300
Cl       0.00000000       0.00000000       0.69199392  T       0.00000000       0.00000016       0.02815589  -12524.62145241
H        0.00000000       1.02758611      -1.43917535  T      -0.00000000       0.00199773      -0.02204482     -16.31761723
H        0.88991565      -0.51379298      -1.43917525  T       0.00173230      -0.00100060      -0.02204626     -16.31761726
H       -0.88991565      -0.51379298      -1.43917525  T      -0.00173230      -0.00100060      -0.02204626     -16.31761726
Cl       0.00000000       0.00000000      -3.63333333  F       0.00000000      -0.00000003      -0.40873822  -12524.31863775
6
Properties=species:S:1:pos:R:3:move_mask:L:1:forces:R:3:energies:R:1 energy=-26135.153156759716 stress="-3.868486362087141e-09 6.86929031442445e-21 4.361552421369778e-21 6.86929031442445e-21 -3.873453667713749e-09 1.2178624241061619e-12 4.361552421369778e-21 1.2178624241061619e-12 -2.025658438282413e-06" free_energy=-26135.153156759716 pbc="F F F"
C        0.00000000       0.00000000      -1.12138900  F      -0.00000000      -0.00000635       1.21684131   -1037.26612411
Cl       0.00000000       0.00000000       0.70956956  T      -0.00000000       0.00000008       0.00062619  -12524.61862958
H        0.00000000       1.03577432      -1.40885184  T      -0.00000000       0.00360469       0.00047939     -16.30841419
H        0.89700704      -0.51788725      -1.40885186  T       0.00311595      -0.00179923       0.00048109     -16.30841418
H       -0.89700704      -0.51788725      -1.40885186  T      -0.00311595      -0.00179923       0.00048109     -16.30841418
Cl       0.00000000       0.00000000      -3.52222222  F       0.00000000       0.00000005      -1.21890908  -12524.34316053
6
Properties=species:S:1:pos:R:3:move_mask:L:1:forces:R:3:energies:R:1 energy=-26134.94249776378 stress="-3.948334096053518e-09 3.174490104319545e-21 1.9273536572673705e-21 3.174490104319545e-21 -3.949505694498782e-09 1.2907675926438955e-14 1.9273536572673705e-21 1.2907675926438955e-14 -4.385148314682157e-06" free_energy=-26134.94249776378 pbc="F F F"
C        0.00000000       0.00000000      -1.12138900  F      -0.00000000      -0.00000062       2.59360681   -1037.12130646
Cl       0.00000000       0.00000000       0.73924189  T      -0.00000000       0.00000004      -0.00832662  -12524.59689118
H        0.00000000       1.04870442      -1.35406653  T       0.00000000       0.00336735      -0.00374639     -16.30465277
H        0.90820471      -0.52435220      -1.35406651  T       0.00291517      -0.00168338      -0.00374637     -16.30465277
H       -0.90820471      -0.52435220      -1.35406651  T      -0.00291517      -0.00168338      -0.00374637     -16.30465277
Cl       0.00000000       0.00000000      -3.41111111  F       0.00000000      -0.00000002      -2.57404106  -12524.31034181
6
Properties=species:S:1:pos:R:3:move_mask:L:1:forces:R:3:energies:R:1 energy=-26134.62608986822 stress="-2.5260229513350005e-10 2.3056252548923156e-20 7.747867154164219e-21 2.3056252548923156e-20 -2.610346399172987e-10 1.0766066345894187e-12 7.747867154164219e-21 1.0766066345894187e-12 -4.738946092841814e-06" free_energy=-26134.62608986822 pbc="F F F"
C        0.00000000       0.00000000      -1.12138900  F      -0.00000000      -0.00000935       2.73211720   -1036.93255798
Cl       0.00000000       0.00000000       0.78993646  T      -0.00000000       0.00000011      -0.03692094  -12524.53049226
H        0.00000000       1.06358849      -1.27708846  T      -0.00000000       0.00020633       0.01416384     -16.30908914
H        0.92109489      -0.53179438      -1.27708848  T       0.00017034      -0.00009857       0.01416509     -16.30908911
H       -0.92109489      -0.53179438      -1.27708848  T      -0.00017034      -0.00009857       0.01416509     -16.30908911
Cl       0.00000000       0.00000000      -3.30000000  F       0.00000000       0.00000005      -2.73769028  -12524.23577227
