9
Lattice="16.305217686073405 0.0 0.0 0.0 15.413743230010471 0.0 0.0 0.0 12.0" Properties=species:S:1:pos:R:3:forces:R:3:energies:R:1 energy=-7274.5794045227485 stress="9.647340715261345e-08 -9.026506510622286e-09 0.0 -9.026506510622286e-09 1.4478811474039275e-07 0.0 0.0 0.0 0.0" free_energy=-7274.5794045227485 pbc="F F F"
C        6.94197662       7.82991357       6.00000000      -0.00674860       0.00654651       0.00000000   -1037.72417307
C        8.16848403       7.07821656       6.00000000      -0.01166595       0.00880104       0.00000000   -1037.45102617
C        9.34937733       7.74337159       6.00000000       0.00754319       0.01077300       0.00000000   -1037.54476109
O        6.89356383       9.06065938       6.00000000      -0.01076458      -0.02042453       0.00000000   -2048.02706966
O        9.46116796       9.05529354       6.00000000      -0.01131866       0.01288658       0.00000000   -2048.18234365
H        8.53534829       9.41374323       6.00000000       0.02534452      -0.01805478       0.00000000     -16.50759450
H        6.00000000       7.26455702       6.00000000       0.01905692      -0.01051704       0.00000000     -16.32937111
H        8.14530449       6.00000000       6.00000000       0.00937425       0.03669615       0.00000000     -16.44368946
H       10.30521769       7.23221153       6.00000000      -0.02082109      -0.02670693       0.00000000     -16.36937581
