6
Properties=species:S:1:pos:R:3:forces:R:3 energy=-26135.56208803094 free_energy=-26135.56208803094 dipole="1.9102786507760396 1.0293806797736271 -0.1869261456305242" pbc="F F F"
C        1.44840542       0.19612347      -0.84341301       0.11722448      -0.54249427      -1.46758590
Cl       1.54156311       1.33923374       0.47396832       0.20456070       0.02632203       0.47901436
H        0.51232017      -0.33568963      -0.87581138      -0.81144013       0.13130700       0.38055350
H        1.57481499       0.74848530      -1.77410589      -0.12976665       0.13490507      -0.01351208
H        2.20130071      -0.58955177      -0.87048373       0.47613912       0.22827506       0.70347535
Cl      -2.15424410      -1.40065740      -0.08810661       0.14328247       0.02168511      -0.08194523
6
Properties=species:S:1:pos:R:3:forces:R:3 energy=-26135.40431624391 free_energy=-26135.40431624391 dipole="-1.491685244998963 -0.14402568355213952 -1.4604853138587361" pbc="F F F"
C       -1.57625536      -0.58845481      -0.49516886      -2.06215720      -2.12127860       2.94964051
Cl      -0.84944434       0.28703169      -1.69563221       1.37385404       1.87875843      -2.57232110
H       -0.94149470      -0.58959210       0.41397273      -0.27423394       0.03596093      -0.35891986
H       -2.60148283      -0.21289947      -0.25548605       0.81403229       0.06763827      -0.07486146
H       -1.74977140      -1.62683724      -0.82091988       0.30085179       0.19533519       0.09714015
Cl       1.53399988      -0.01857769       1.88223886      -0.15234698      -0.05641422      -0.04067824
6
Properties=species:S:1:pos:R:3:forces:R:3 energy=-26135.128947786143 free_energy=-26135.128947786143 dipole="1.9063120717583102 0.896932141026167 0.18056548106878698" pbc="F F F"
C        1.70618661       0.33712223      -0.63180767       0.83172595      -2.84483095      -3.68703898
Cl       1.30160297       1.00843614       0.77268823      -1.39642584       2.61796046       4.79919803
H        2.56034418      -0.29415103      -0.47159737       0.46572187      -0.71088154      -0.05515398
H        0.87548019      -0.27180261      -1.00238870       0.02172729       0.07757716      -0.19674305
H        2.03667567       1.04098074      -1.35783712      -0.06391993       0.84757536      -0.79085805
Cl      -2.03529231      -1.13616540      -0.47810093       0.14117067       0.01259950      -0.06940397
6
Properties=species:S:1:pos:R:3:forces:R:3 energy=-26135.35082100246 free_energy=-26135.35082100246 dipole="1.0752606016388138 0.42596725366407046 1.7034576587516501" pbc="F F F"
C        1.61743029       0.19927021       0.88253307       1.36417417       0.91778784      -2.13688205
Cl       0.20112982       0.46149537       1.73287621      -2.24133864       0.81606036       1.88060376
H        2.13158927      -0.60320162       1.29673042       0.90108942      -1.74396962       0.60404514
H        1.29727274       0.00244928      -0.12893380       0.19262229      -0.32593583      -0.59542768
H        2.32541920       1.03282058       0.86584194      -0.36630639       0.31886389       0.19225133
Cl      -0.91275945      -0.54129676      -2.08971718       0.14975915       0.01719336       0.05540950
6
Properties=species:S:1:pos:R:3:forces:R:3 energy=-26135.541190143187 free_energy=-26135.541190143187 dipole="-1.776163609694224 -1.0224421600480806 -0.585888413597316" pbc="F F F"
C       -1.65516254      -0.35244284       0.29664380       1.83483320       1.95661959       1.03073001
Cl      -1.18692584      -1.21554482      -1.12755826      -0.07032536      -0.53855893      -0.87452206
H       -2.27525513      -0.91112188       0.93504590      -0.75574391      -1.11554190       0.71556436
H       -0.71730543      -0.03773033       0.82523310      -0.61393367      -0.40349167      -0.33640353
H       -2.15649777       0.58258564       0.08671642      -0.23737275       0.15283827      -0.56913931
Cl       1.89413058       1.34537240       0.97453259      -0.15745753      -0.05186536       0.03377055
6
Properties=species:S:1:pos:R:3:forces:R:3 energy=-26135.292164110037 free_energy=-26135.292164110037 dipole="-0.5698847326477254 -1.7233525046163383 0.9718208521812417" pbc="F F F"
C       -0.25629931      -1.92457521       0.06451721      -0.03633849       0.82362928      -1.18963264
Cl      -0.58012922      -0.83053608       1.34881665      -0.44063678       0.59061161       1.11234309
H       -0.32837277      -2.91596882       0.34843306       0.49217683      -2.14964320       1.27146319
H       -1.01616357      -1.89281947      -0.68176108      -0.62567976       0.83002154      -0.78441876
H        0.68389236      -1.65395599      -0.36649802       0.58943677       0.01609995      -0.36731038
Cl       0.68575235       1.66637583      -1.35077692       0.02104144      -0.11071918      -0.04244449
6
Properties=species:S:1:pos:R:3:forces:R:3 energy=-26135.42618006196 free_energy=-26135.42618006196 dipole="-0.9555596688383958 1.952011985528488 -0.22628780443547783" pbc="F F F"
C       -0.45039054       1.27995382      -1.00455683       0.17609730       2.08600420      -0.88159566
Cl      -1.02154292       1.73127794       0.54278584      -0.82023495       0.47972773       2.26292936
H        0.47085941       1.85107546      -1.12762660      -0.18792095       0.16902280      -0.65091625
H       -0.15950975       0.28950210      -0.98254215       0.20601291      -2.47727211      -0.20931497
H       -1.27215805       1.56473938      -1.67249893       0.68180110      -0.39405145      -0.43093915
Cl       1.20146212      -2.27030431      -0.09486874      -0.05575541       0.13656883      -0.09016333
6
Properties=species:S:1:pos:R:3:forces:R:3 energy=-26135.336046702487 free_energy=-26135.336046702487 dipole="-1.1688760587049272 0.8224136205513372 -1.4673210081021437" pbc="F F F"
C       -0.48646605       1.45720259      -1.19225587       2.56731694       0.98422393       0.10258516
Cl      -1.30777174      -0.01783272      -1.13527704      -1.58348602      -1.79325253      -0.16750773
H       -0.84816655       2.16052632      -0.45959228      -0.66044565       0.46365005      -0.17914087
H        0.51090343       1.22089716      -0.80305645       0.12707202       0.10278253      -0.14877203
H       -0.35801573       1.82760639      -2.22285400      -0.45455025       0.12071728       0.47273734
Cl       1.49236369      -0.62400542       1.63833972       0.00409295       0.12187873      -0.07990188
6
Properties=species:S:1:pos:R:3:forces:R:3 energy=-26135.361664000673 free_energy=-26135.361664000673 dipole="1.8805028424032366 1.013617500341048 -0.17255511290324346" pbc="F F F"
C        1.43043862       0.21314038      -0.81137666      -2.67695740      -4.24149009       0.04198161
Cl       1.55679059       1.32503560       0.44140743       0.26700688       1.73555436       1.68308619
H        0.38490094      -0.33535841      -0.79047038       1.76708829       1.14927130       0.16265078
H        1.54382571       0.61577213      -1.75381806       0.27467066       1.35173384      -2.00453331
H        2.16750571      -0.57989017      -0.71107490       0.21373592      -0.03068840       0.19670567
Cl      -2.15791895      -1.38873537      -0.07393631       0.15445565       0.03561899      -0.07989093
6
Properties=species:S:1:pos:R:3:forces:R:3 energy=-26135.08587682283 free_energy=-26135.08587682283 dipole="-1.924165605420527 -0.8394803841204318 -0.49347260073837357" pbc="F F F"
C       -1.35786666      -0.88246947       0.45347239       2.55433306      -2.17964979       5.89987028
Cl      -1.66398794      -0.50687380      -1.07849283      -1.58849776       0.90479666      -5.21199077
H       -1.59839158      -1.96819934       0.79919968       0.28259716       1.66911221      -0.95776677
H       -0.24411605      -0.71082739       0.59374048      -1.12471699      -0.27178039       0.36199326
H       -1.86787830      -0.21871707       1.15901520       0.00599049      -0.02384345      -0.10472258
Cl       2.22955650       0.88826355       0.85228612      -0.12970596      -0.09863525       0.01261658
6
Properties=species:S:1:pos:R:3:forces:R:3 energy=-26135.232289403924 free_energy=-26135.232289403924 dipole="-1.5629257338504239 0.00046053551787276305 -1.668920853069771" pbc="F F F"
C       -1.28454965      -0.36340570      -0.51262501      -0.37215549      -3.07756981       5.85526369
Cl      -1.17355660       0.30155224      -1.98031701       0.18218171       1.71655432      -4.70440846
H       -0.37017160      -0.14307854       0.08624859      -0.64911937      -0.05873647      -0.09004122
H       -2.18796802      -0.01025216       0.03464288       0.66815937       0.10428617      -0.24727463
H       -1.39805562      -1.50017503      -0.44873698       0.29286637       1.32813384      -0.71373608
Cl       1.72127369      -0.13140838       2.16332426      -0.12193259      -0.01266805      -0.09980329
6
Properties=species:S:1:pos:R:3:forces:R:3 energy=-26135.161865066286 free_energy=-26135.161865066286 dipole="-1.8304488945285897 -0.8591777304665933 -0.5219321093754685" pbc="F F F"
C       -0.94601264      -1.19208194      -0.94050210       5.48396500      -1.07179851      -2.69939066
Cl      -1.88058970      -0.27303476       0.02181863      -2.76110792       2.27279475       2.49446161
H       -1.25909507      -1.23498699      -1.97539756      -0.61796621      -0.22293927      -0.19280327
H        0.11799952      -0.70934943      -1.02948245      -1.68374767      -0.68063659       0.45186893
H       -0.73854704      -2.18402819      -0.54741140      -0.34795661      -0.20271271       0.04663974
Cl       2.25455973       0.79431791       0.39784513      -0.07318659      -0.09470767      -0.10077635
6
Properties=species:S:1:pos:R:3:forces:R:3 energy=-26135.498960255332 free_energy=-26135.498960255332 dipole="-1.5369817563979842 1.0221072961800586 -1.156824111235601" pbc="F F F"
C       -0.75203557       1.33299561      -0.34526315       3.02787499       0.73107500       2.90904223
Cl      -1.64287814       0.37307735      -1.41497192      -1.20876246      -1.08758033      -1.27108257
H       -0.14318231       2.07608984      -0.88328342      -0.39675474      -0.15327052      -0.02070973
H       -1.37858000       1.86086306       0.40249131       0.09537055      -0.36493854      -0.56756309
H        0.03042072       0.70357120       0.25229145      -1.41397390       0.74125167      -0.98853131
Cl       1.94008467      -0.95666715       1.53844962      -0.10375443       0.13346272      -0.06115554
6
Properties=species:S:1:pos:R:3:forces:R:3 energy=-26135.50769364159 free_energy=-26135.50769364159 dipole="-1.9826433178726732 0.3120726569511852 -0.9506783450984732" pbc="F F F"
C       -1.47701133      -0.20499512       0.02103117      -0.24821143      -1.49606912       2.90817141
Cl      -1.61307248       0.62117321      -1.42937220      -0.42890030       1.25822900      -2.60777744
H       -0.42157209      -0.41908688       0.22428536      -0.17213011      -0.17156759       0.20053148
H       -1.89805607       0.40342545       0.82140495       0.38676376       0.34027683       0.11918587
H       -2.12805676      -1.09912331       0.08347724       0.61970107       0.07976698      -0.57450881
Cl       2.23997373      -0.52001949       1.39013930      -0.15722299      -0.01063610      -0.04560251
6
Properties=species:S:1:pos:R:3:forces:R:3 energy=-26135.298656704756 free_energy=-26135.298656704756 dipole="-0.8940802589855283 1.9026474857078142 -0.39828426654506066" pbc="F F F"
C       -0.41079971       1.29652759      -1.12923466       1.50546900      -1.34847664      -2.32821450
Cl      -0.95706581       1.66467907       0.37810024      -1.99211946       1.06510870       3.68487445
H        0.13913463       2.13988650      -1.47299310       0.77891313       0.49542824      -0.63563970
H        0.19808423       0.41384365      -0.99196957       0.59653445      -0.30556389      -0.41284608
H       -1.15491609       1.05163735      -1.86004690      -0.85342924      -0.03628007      -0.20915289
Cl       1.11950175      -2.20647888       0.12748078      -0.03536788       0.12978365      -0.09902127
6
Properties=species:S:1:pos:R:3:forces:R:3 energy=-26135.427067362725 free_energy=-26135.427067362725 dipole="1.737757290911995 1.1621278893137925 -0.158594660835981" pbc="F F F"
C        0.71342116       1.45705585      -0.45537500      -3.09710195       2.58121149      -1.38603989
Cl       1.94534223       0.48903571       0.15892384       1.65981091      -0.86465467       0.90835648
H       -0.24673976       0.92687059      -0.42957226       0.16849080      -0.33282552       0.13396920
H        0.48218755       2.44349884       0.07307839       0.93582444      -1.29560560      -0.24377534
H        0.86846116       1.71914393      -1.52558197       0.26282074      -0.22606031       0.63108610
Cl      -2.21844919      -1.12742576       0.04887987       0.07015506       0.13793460      -0.04359655
6
Properties=species:S:1:pos:R:3:forces:R:3 energy=-26135.641052850224 free_energy=-26135.641052850224 dipole="-1.3011287468500488 0.8060983505349768 -1.5690779846136667" pbc="F F F"
C       -0.13318143       0.82455345      -1.28837843       2.03466501       0.11522710       1.48792271
Cl      -1.83832338       0.47124084      -1.21299853      -0.75773985      -0.24194691      -0.07442713
H        0.00043986       1.91494331      -1.25245751      -0.09377454      -0.28482315      -0.02723033
H        0.42569638       0.37344361      -0.38973876      -0.90779429       0.45928682      -1.15510137
H        0.31758943       0.44921187      -2.20497157      -0.21683690      -0.14021133      -0.08241459
Cl       1.86229987      -0.82845413       1.75891273      -0.05851944       0.09246747      -0.14874931
6
Properties=species:S:1:pos:R:3:forces:R:3 energy=-26135.486919890278 free_energy=-26135.486919890278 dipole="-1.9820010422627814 0.23027904575710564 -0.7264752824391377" pbc="F F F"
C       -1.74745726      -0.28159272       0.20023271       0.92992820      -0.42011344       1.12086775
Cl      -1.41235063       0.57466650      -1.24654051       0.51269931       0.93848144      -1.91949129
H       -2.36453782       0.41159544       0.75268772      -0.65721490      -0.52772235       0.50056447
H       -2.15949579      -1.24693077      -0.09560147      -0.35484422       0.14246287       0.52445186
H       -0.79735323      -0.41355578       0.75080084      -0.25978957      -0.11006565      -0.25380885
Cl       2.15572629      -0.44374711       1.13866617      -0.17077882      -0.02304287       0.02741607
6
Properties=species:S:1:pos:R:3:forces:R:3 energy=-26135.49409782011 free_energy=-26135.49409782011 dipole="1.7801187103290792 0.9341332317232992 0.9287600308868538" pbc="F F F"
C        1.44361521      -0.16611087       0.82881326       1.01101651      -0.88216022       0.80747394
Cl       1.32237894       1.51023563       0.62048066      -0.28055674       2.52924821      -0.46425143
H        1.61967632      -0.31808014       1.87233052      -0.07605283      -0.44062098       0.79656250
H        0.57344283      -0.65654613       0.50484426      -1.31179538      -0.72719657      -0.61256634
H        2.31993267      -0.49955573       0.32007080       0.51699263      -0.47711853      -0.61647510
Cl      -1.93982375      -1.41203723      -0.97798982       0.14039580      -0.00215191       0.08925643
6
Properties=species:S:1:pos:R:3:forces:R:3 energy=-26135.487328866337 free_energy=-26135.487328866337 dipole="1.8861203976959635 0.9185362128764828 0.17502701871865953" pbc="F F F"
C        1.72525410       0.29304678      -0.64773562      -0.23932485      -0.40992963      -2.13399093
Cl       1.29022881       1.07482359       0.81118310       0.05454383       0.61320095       1.67602183
H        2.62593324      -0.33388227      -0.61762123      -0.24538395       0.12218667       0.51136671
H        0.83987619      -0.29430227      -0.94832753       0.38811331       0.05748299      -0.04881182
H        1.90984038       1.09095595      -1.38626787      -0.10895785      -0.39932002       0.06742146
Cl      -2.02762463      -1.18727093      -0.50777586       0.15100950       0.01637904      -0.07200725
6
Properties=species:S:1:pos:R:3:forces:R:3 energy=-26135.299623805142 free_energy=-26135.299623805142 dipole="-1.4687975940274 -0.13439245112173231 -1.4403258381129438" pbc="F F F"
C       -1.57012651      -0.58374519      -0.50169733      -0.66138473      -2.23373629       4.53555894
Cl      -0.86328874       0.28233223      -1.70167919       1.33186799       2.01598923      -3.14690381
H       -0.87568424      -0.56182272       0.37695623      -0.29860317      -0.01084012      -0.48767774
H       -2.49643134      -0.13102517      -0.09866708       0.13978456      -0.35289305      -0.65376824
H       -1.66547341      -1.66475111      -0.72618817      -0.36364240       0.63418477      -0.20257551
Cl       1.53851241      -0.01751352       1.88439763      -0.14802225      -0.05270454      -0.04463364
6
Properties=species:S:1:pos:R:3:forces:R:3 energy=-26135.56790818619 free_energy=-26135.56790818619 dipole="-1.8455419011870906 0.5218213255972597 -0.868386032009386" pbc="F F F"
C       -1.76768521       0.33571876       0.19541727       0.94158475      -0.38320121       0.65900322
Cl      -1.19921419       0.47453439      -1.46469401      -0.17403692      -0.16574533      -0.87257107
H       -2.21909792       1.29082529       0.42071167      -0.05052849       0.19980698       0.42342978
H       -2.50453103      -0.46889771       0.32930274       0.32532091       0.14855829      -0.27581212
H       -0.82411563       0.13540199       0.75971316      -0.86247445       0.15945527       0.04854886
Cl       1.95587973      -0.61550213       1.35555544      -0.17986579       0.04112599       0.01740133
6
Properties=species:S:1:pos:R:3:forces:R:3 energy=-26135.491328669545 free_energy=-26135.491328669545 dipole="-1.2859458668508146 -0.011035356242833442 -1.7145402615233742" pbc="F F F"
C       -0.36952313      -0.62624026      -1.53543446       2.16585006      -1.73952161       0.75357692
Cl      -1.57712310       0.52650531      -1.23318048      -1.82369763       1.47262189      -0.00337440
H       -0.77502520      -1.65371401      -1.45726470      -0.00651315       0.50994565      -0.51676947
H        0.14756056      -0.43604223      -2.50709387      -0.38027923      -0.23191296       0.85661405
H        0.30428907      -0.56178757      -0.64298380       0.10754735       0.04072778      -0.93174107
Cl       1.71151247      -0.23893047       1.88441615      -0.06290741      -0.05186073      -0.15830602
6
Properties=species:S:1:pos:R:3:forces:R:3 energy=-26135.10020165106 free_energy=-26135.10020165106 dipole="-0.8401227491612719 1.8675443408165822 -0.5940891971860683" pbc="F F F"
C       -0.33704683       1.24194468      -1.24866334       1.81908269      -2.47911468      -4.54496542
Cl      -0.92501123       1.65018966       0.18569492      -1.81134724       1.49540064       5.10926646
H        0.35963148       1.94303910      -1.64961789       0.22035346       1.03424680      -0.44112425
H        0.24608843       0.31883090      -1.25096137      -0.11602752      -0.35667630       0.58188805
H       -1.16018628       1.04799151      -1.92324733      -0.09791133       0.21219097      -0.59135581
Cl       1.05497376      -2.16509341       0.37453392      -0.01415006       0.09395257      -0.11370904
6
Properties=species:S:1:pos:R:3:forces:R:3 energy=-26135.43153659206 free_energy=-26135.43153659206 dipole="-2.0371907258756967 0.33676971667952565 -0.8215152480428616" pbc="F F F"
C       -1.58424739      -0.11207693       0.17530609       2.53692256      -0.45792851       1.10590576
Cl      -1.61020330       0.61022101      -1.36176429      -0.71300179       1.02770385      -1.84151884
H       -1.65412182      -1.15692135       0.08333072       0.07276402      -1.50932953      -0.34257587
H       -0.58576124       0.11661118       0.57242496      -0.19919084      -0.27228056       0.28945035
H       -2.31348576       0.15022954       0.87191076      -1.54355119       1.18952584       0.79258263
Cl       2.27644282      -0.54693872       1.25892961      -0.15394275       0.02230891      -0.00384404
6
Properties=species:S:1:pos:R:3:forces:R:3 energy=-26135.380939599716 free_energy=-26135.380939599716 dipole="1.8003648594810127 1.240711288235809 -0.16589319569319036" pbc="F F F"
C        0.74000771       1.46379235      -0.46285518      -1.58574334       0.72891843       0.17180032
Cl       1.98606316       0.54155298       0.15807991       2.98154488      -2.21366885       1.11529913
H       -0.16495077       0.93155455      -0.20066631      -0.68993615       0.27876267      -0.12936544
H        0.87477295       2.40330224       0.03420157      -0.70923485       0.86629185      -0.01557277
H        0.85552018       1.55646288      -1.51158952      -0.08908161       0.19727436      -1.11485113
Cl      -2.28129863      -1.17658994       0.04645697       0.09245106       0.14242154      -0.02731011
6
Properties=species:S:1:pos:R:3:forces:R:3 energy=-26135.499492661475 free_energy=-26135.499492661475 dipole="1.4447628493207378 1.3284563803594434 0.8622891585828745" pbc="F F F"
C        0.35847526       1.47215545       0.88804017      -1.75578842      -1.15881409      -1.41037546
Cl       1.82473413       0.67479021       0.49997551       1.66472041      -0.74807798      -0.19036793
H        0.33458744       1.75478716       1.88696920       0.14784522       0.83192930       1.82503835
H        0.23069039       2.26511679       0.19030464      -0.14179807       0.96100185      -0.27066919
H       -0.46081822       0.76499987       0.70824350       0.05180477      -0.01675262      -0.04886120
Cl      -1.94916126      -1.30963484      -0.88006160       0.03321610       0.13071354       0.09523543
6
Properties=species:S:1:pos:R:3:forces:R:3 energy=-26135.383711713213 free_energy=-26135.383711713213 dipole="-0.6748281105735452 -1.5843980876720811 1.0769347685758872" pbc="F F F"
C       -0.07366463      -1.84198510       0.32393118       0.47018070       1.02798519      -2.96511463
Cl      -0.93122883      -0.75504123       1.30578605      -1.07452480       1.01413590       1.27117271
H        0.47810434      -2.51810670       0.86819850       1.00260349      -1.76693117       1.47228068
H       -0.71692338      -2.31279588      -0.40559797      -0.43216768      -0.39983464       0.09141178
H        0.62892073      -1.27183605      -0.29259590       0.00678790       0.27197502       0.13121342
Cl       0.94509522       1.55266165      -1.42037286       0.02712039      -0.14733031      -0.00096396
6
Properties=species:S:1:pos:R:3:forces:R:3 energy=-26135.063300396843 free_energy=-26135.063300396843 dipole="2.01448639564848 0.3411184309654968 0.6376384945550468" pbc="F F F"
C        1.29233813       1.07250532       0.32619725      -3.38026941       5.92352827      -1.29948845
Cl       1.83466661      -0.38190983       0.67869690       2.29639799      -5.52010204       1.64365571
H        0.17896445       1.02769668       0.10620977       0.97936324       0.21372403       0.56175111
H        1.53616497       1.87611452       1.07879896      -0.39869002      -0.91912487      -0.41825388
H        1.70830640       1.42740109      -0.60184727       0.36975772       0.20412839      -0.52718244
Cl      -2.36987385      -0.10462679      -0.80579935       0.13344048       0.09784622       0.03951794
6
Properties=species:S:1:pos:R:3:forces:R:3 energy=-26135.485793671804 free_energy=-26135.485793671804 dipole="1.9572384005443815 0.9619021259998493 0.2889738584516577" pbc="F F F"
C        1.36557325       0.53751035      -0.62527311      -1.47098611      -1.18006370      -3.64526133
Cl       1.71112840       0.95393960       0.95135141       0.86480320       0.77538929       2.84400100
H        2.08085556      -0.20922455      -1.04373681      -0.23852350       0.72024196       0.34611058
H        0.36578739       0.04253208      -0.66900666       0.46617949       0.34329689       0.03989075
H        1.31138565       1.44470222      -1.27628850       0.22533744      -0.72156070       0.44974919
Cl      -2.28066277      -1.17239575      -0.65450798       0.15318947       0.06269626      -0.03449018
6
Properties=species:S:1:pos:R:3:forces:R:3 energy=-26135.279126422924 free_energy=-26135.279126422924 dipole="-1.797595360277692 -0.9198869959159403 -0.5463379718808482" pbc="F F F"
C       -1.40026171      -1.08306694       0.39115101       1.24465082      -1.66446680       1.45567330
Cl      -1.44141766      -0.43823001      -1.13670619      -0.57180302       1.32755309      -3.52338750
H       -1.63576068      -2.15022416       0.36081422       0.02493383       0.15775177       0.30663039
H       -0.41158214      -0.86838481       0.73017420       1.09741827      -0.45317736       0.56117215
H       -1.98633921      -0.53102890       1.04769833      -1.67056599       0.73683250       1.16125923
Cl       2.03054304       0.90612146       0.94336596      -0.12463391      -0.10449320       0.03865242
6
Properties=species:S:1:pos:R:3:forces:R:3 energy=-26135.402689785707 free_energy=-26135.402689785707 dipole="1.5055943848688262 -1.5546611537155206 0.13072261669166188" pbc="F F F"
C        0.57192681      -1.49588269      -0.51323322       0.68858678       1.07899418      -3.10140476
Cl       1.71050693      -0.98977297       0.64026912       1.45725865       0.84720202       1.85181083
H        0.05125122      -0.63261931      -0.95218186       0.25039860       0.04862258       0.14585455
H        1.20757765      -1.98003793      -1.29828062      -1.22851150      -0.14818103       0.47941251
H       -0.17421385      -2.04576821      -0.05185115      -1.23830032      -1.68866419       0.68151522
Cl      -1.93512484       1.62906042      -0.40091295       0.07056779      -0.13797356      -0.05718833
6
Properties=species:S:1:pos:R:3:forces:R:3 energy=-26135.291470963926 free_energy=-26135.291470963926 dipole="1.9124680061241157 0.3819875547734748 0.553312546037282" pbc="F F F"
C        1.36927904       1.18832071       0.62848412      -1.28259881       1.94783195       2.96365457
Cl       1.61504591      -0.42367368       0.27856225       0.81501243      -2.88565103      -0.73299073
H        0.28354380       1.36835035       0.53153915       0.44990676       0.27969482      -0.02368967
H        1.71451482       1.40278329       1.68854974      -0.66390349      -0.29359976      -0.94132874
H        1.96195482       1.83451864       0.05171958       0.61055036       0.82603046      -1.32320627
Cl      -2.19157916      -0.10990651      -0.55609979       0.07103276       0.12569355       0.05756085
6
Properties=species:S:1:pos:R:3:forces:R:3 energy=-26135.632986901222 free_energy=-26135.632986901222 dipole="-1.58482629204992 -0.08331498244502036 -1.5270069506617021" pbc="F F F"
C       -1.53779101      -0.49495281      -0.42897164      -0.38612814      -0.73977231       0.53351886
Cl      -0.97803532       0.32793558      -1.87314567       0.09640092       0.23866710      -0.53382216
H       -0.69796481      -0.66818398       0.23556201       0.22842488       0.50702924       0.34029586
H       -2.34797607       0.08711913       0.02769667       0.38580734      -0.11221605      -0.00461743
H       -1.90521576      -1.49174782      -0.68678052      -0.18250660       0.16850815      -0.27107424
Cl       1.63984557      -0.10129881       2.03053039      -0.14199840      -0.06221612      -0.06430089
6
Properties=species:S:1:pos:R:3:forces:R:3 energy=-26135.50168852903 free_energy=-26135.50168852903 dipole="-1.7525963634191715 -0.9869665294350417 -0.5245231763735138" pbc="F F F"
C       -1.79561426      -0.33989072       0.29286288      -0.56910566       1.73243769      -0.25580341
Cl      -1.02419495      -1.15384289      -1.02545370       0.20681094      -0.60980879      -0.72315391
H       -1.93660502      -0.96236712       1.12376766      -0.29389793      -1.30515149       1.01952113
H       -1.14932131       0.44979761       0.62913373       0.57666708       0.50003028       0.00045444
H       -2.75275614       0.10883378      -0.01232773       0.22959819      -0.31534958      -0.08078072
Cl       1.79859593       1.28048303       0.87673510      -0.15007262      -0.00215811       0.03976247
6
Properties=species:S:1:pos:R:3:forces:R:3 energy=-26135.11486157815 free_energy=-26135.11486157815 dipole="-1.7094550267538418 -1.0691489239506593 0.48070735413983995" pbc="F F F"
C       -1.39680481      -1.05914157      -0.48301382      -1.43143982      -1.37581021      -2.34549384
Cl      -1.30115286      -0.67740467       1.10855934       0.08545200       0.68277956       4.26252718
H       -2.41875745      -0.93979458      -0.84239223      -0.17507246      -0.75355453      -0.04966865
H       -0.87593894      -0.35459567      -0.99315577       1.93060937       2.33196902      -1.70668876
H       -0.89314654      -1.97902706      -0.71301340      -0.29813076      -0.81282268      -0.10184603
Cl       1.89349047       1.12933567      -0.87244005      -0.11141833      -0.07256116      -0.05882990
6
Properties=species:S:1:pos:R:3:forces:R:3 energy=-26135.170825896384 free_energy=-26135.170825896384 dipole="-1.9174746030434495 -0.8682871504849974 -0.4094026538672948" pbc="F F F"
C       -1.20823426      -1.18786107       0.33321648       2.00014022      -3.87019124       3.07389169
Cl      -1.77314648      -0.25290237      -0.85142290      -2.48760564       3.13909082      -3.65412017
H       -0.96656028      -2.17655713      -0.08611165      -0.10399074       0.03303587       0.23978925
H       -0.26965437      -0.78656582       0.63962045       0.91576043       0.37459214       0.66504818
H       -1.83748451      -1.36836396       1.21636888      -0.20603638       0.42899421      -0.34816154
Cl       2.26991349       0.77853109       0.68819865      -0.11826789      -0.10552181       0.02355257
6
Properties=species:S:1:pos:R:3:forces:R:3 energy=-26135.225160540005 free_energy=-26135.225160540005 dipole="1.606680408599063 0.365820476072338 1.3990118101527158" pbc="F F F"
C        0.58057665       0.00374940       1.59162817      -4.02979627      -0.86145447       1.33354518
Cl       1.82135962       0.54525229       0.68072111       3.64213020       1.76862721      -2.85632495
H        0.78273060       0.33138337       2.60837479      -0.66875749      -0.04921495       0.27795809
H       -0.42297176       0.32004787       1.14707016       1.21661119      -0.22151824       0.80300709
H        0.58558627      -1.06834347       1.53272311      -0.21490591      -0.66069858       0.29115749
Cl      -2.04494817      -0.53466799      -1.37035494       0.05471827       0.02425903       0.15065711
6
Properties=species:S:1:pos:R:3:forces:R:3 energy=-26135.334472792056 free_energy=-26135.334472792056 dipole="-1.8092528744004028 0.38739011594909406 -1.0477311976216257" pbc="F F F"
C       -1.63940985      -0.06674895      -0.05449408      -0.62755171      -3.08673535       2.84724794
Cl      -1.24890715       0.62040424      -1.48525948       0.88500931       1.80665601      -4.16287744
H       -0.71588123      -0.20754581       0.50634270      -0.06059007      -0.04619197       0.49209630
H       -2.35601293       0.53546721       0.43863710      -0.55044544       0.78665315       0.92792491
H       -2.14017499      -1.05780164      -0.18058048       0.51792414       0.53309836      -0.07874731
Cl       1.95256632      -0.57703496       1.48198766      -0.16434623       0.00651981      -0.02564441
6
Properties=species:S:1:pos:R:3:forces:R:3 energy=-26135.40097988711 free_energy=-26135.40097988711 dipole="-0.8721411428177618 1.8946724374751895 0.5611311414400717" pbc="F F F"
C       -1.28051677       1.14564948      -0.15733426      -1.13173326      -1.88794965      -2.78296103
Cl      -0.17457339       1.80457042       0.93926588       1.03942517       1.35622922       1.12390180
H       -2.18383144       0.82858596       0.31878020      -0.42232652      -0.42889862       0.83649301
H       -1.69228689       1.75359954      -0.99536622       1.02887644       0.40466121       0.58659211
H       -0.79147976       0.24908312      -0.60755834      -0.40481184       0.43245139       0.25299954
Cl       0.74115239      -2.27323938      -0.84944475      -0.10942999       0.12350644      -0.01702542
6
Properties=species:S:1:pos:R:3:forces:R:3 energy=-26135.560584142753 free_energy=-26135.560584142753 dipole="-0.6295063992265801 1.8857449506984862 0.935805419008428" pbc="F F F"
C        0.39146417       1.31164867       0.81748890       1.70953245      -1.05235253       0.71815212
Cl      -1.27316516       1.64032290       0.66840120      -1.64739460       0.60184546      -0.12800733
H        1.02959483       2.02035536       0.34438046       0.17617131       1.07305694      -0.34641107
H        0.68915313       1.19939747       1.86044503      -0.18226623       0.19594893       0.09269715
H        0.62555090       0.38510065       0.33765434      -0.07284469      -0.95930707      -0.41612170
Cl       1.07387237      -2.18723134      -1.01767282       0.01680176       0.14080827       0.07969082
6
Properties=species:S:1:pos:R:3:forces:R:3 energy=-26135.269373966992 free_energy=-26135.269373966992 dipole="-2.0838372598865234 -0.4990850960386133 -0.0638429290628387" pbc="F F F"
C       -1.33435100      -0.96192865       0.56880407       1.99974398      -2.77141568       2.27512604
Cl      -1.90606657       0.06641760      -0.58465671      -1.36012024       1.91588846      -3.00752519
H       -0.24492056      -1.01416764       0.58140931       0.27140410       0.12771833      -0.55106553
H       -1.52438011      -0.47704805       1.49633578      -0.58694476      -0.22223855       1.20165666
H       -1.68697957      -2.02396600       0.51391067      -0.20586356       1.04323147       0.03177245
Cl       2.45644232       0.35945062       0.31824501      -0.11821952      -0.09318403       0.05003557
6
Properties=species:S:1:pos:R:3:forces:R:3 energy=-26135.50978050072 free_energy=-26135.50978050072 dipole="-1.0250385743818387 1.7980811915245838 0.8419131567519494" pbc="F F F"
C        0.04611935       1.13306464       0.86226103       2.02966688      -2.39070109       0.09369488
Cl      -1.56459577       1.69041051       0.50963959      -0.40603915       0.71368438       0.28447309
H        0.89816267       1.77103235       0.61158495      -0.67357171       0.71923370      -0.12992225
H        0.25039289       0.76958126       1.90780767      -0.90272346       0.53463024      -0.80811424
H        0.19888244       0.24761301       0.20569744      -0.00355035       0.28446460       0.48732203
Cl       1.51065622      -2.15359166      -0.87927310      -0.04378221       0.13868817       0.07254649
6
Properties=species:S:1:pos:R:3:forces:R:3 energy=-26135.473775968123 free_energy=-26135.473775968123 dipole="-1.7334102901018316 -1.1174011911725121 0.5067735551234266" pbc="F F F"
C       -1.40736647      -1.06230269      -0.50308954       0.60606054      -1.12737003      -2.25630482
Cl      -1.32663831      -0.69568984       1.15474011      -0.07638228       0.49358872       1.84160609
H       -2.42275169      -0.97357182      -0.89233251       0.05271962       0.58272249       0.00444900
H       -0.63147247      -0.49992483      -1.06656388      -0.62388907       0.01617734       0.35426670
H       -1.17893288      -2.12808691      -0.63911851       0.16461847       0.12900454       0.12033895
Cl       1.92384285       1.15802309      -0.91041268      -0.12312727      -0.09412306      -0.06435592
6
Properties=species:S:1:pos:R:3:forces:R:3 energy=-26135.388449894064 free_energy=-26135.388449894064 dipole="1.9248006683450387 0.706067562784566 -0.5207853278549239" pbc="F F F"
C        1.59644724       0.50803078       0.49972878       0.12506396      -1.19238937       2.55300817
Cl       1.45187157       0.61434543      -1.18545531       0.11071783       0.41500446      -2.27135735
H        1.93601080       1.44418885       0.96027711      -0.99270095       0.26428524      -0.18798642
H        0.61676211       0.04570393       0.85245645       1.21817375       0.85852187       0.17010008
H        2.47188461      -0.11733340       0.76412753      -0.64133739      -0.39015721      -0.30084586
Cl      -2.13564541      -0.82550192       0.94286805       0.18008280       0.04473500       0.03708137
6
Properties=species:S:1:pos:R:3:forces:R:3 energy=-26135.488818259535 free_energy=-26135.488818259535 dipole="1.711278745520747 0.836339100355108 0.9150832088084409" pbc="F F F"
C        1.69310592      -0.12263590       0.38756079      -3.06123334      -1.08906537      -1.04481873
Cl       1.09202685       1.37139888       1.02942872      -0.22435598       1.42604814       0.59273376
H        1.95793322      -0.72776285       1.21358716       1.01086036      -0.65497842       0.62717289
H        0.77033174      -0.61783352      -0.06372832       1.15037991       0.44511990       0.17095061
H        2.40213357       0.08943962      -0.37280511       0.95167940      -0.12377126      -0.40051767
Cl      -1.81155681      -1.29412989      -1.18283529       0.17266965      -0.00335298       0.05447914
6
Properties=species:S:1:pos:R:3:forces:R:3 energy=-26134.983969483 free_energy=-26134.983969483 dipole="1.496005070442655 1.3354424620034984 0.8667999831322386" pbc="F F F"
C        0.40438861       1.41768508       0.88839311      -6.48193156       3.37996364       2.77628032
Cl       1.77856887       0.73178562       0.50156347       5.58447490      -2.48273734      -1.44662574
H        0.38375532       1.97208981       1.88300267       0.52140188      -0.73447804      -0.81527180
H        0.07015749       2.21193334       0.19867010       0.14102279      -0.54384508      -0.18024211
H       -0.40784836       0.67273210       0.98380591       0.20145201       0.28329499      -0.42675711
Cl      -1.91689171      -1.35021791      -0.88972968       0.03357998       0.09780183       0.09261644
6
Properties=species:S:1:pos:R:3:forces:R:3 energy=-26135.230005472782 free_energy=-26135.230005472782 dipole="-1.733216339245679 -1.0716364452563818 0.4969733085444162" pbc="F F F"
C       -1.38670652      -1.08576261      -0.47781718       1.47563593       0.52483403      -4.54062004
Cl      -1.33405516      -0.64878386       1.11222711       0.14624795       0.91113067       3.44435412
H       -2.22616648      -0.61002705      -0.98043591      -0.02185458       0.43597085      -0.07316647
H       -0.40438933      -0.77516021      -1.05331989      -1.77194863      -0.62027728       1.26379531
H       -1.60648220      -2.12137418      -0.58484626       0.28186977      -1.14435393      -0.02981423
Cl       1.92437015       1.11636379      -0.87587695      -0.10995045      -0.10730435      -0.06454868
6
Properties=species:S:1:pos:R:3:forces:R:3 energy=-26135.228832469336 free_energy=-26135.228832469336 dipole="-1.9799694663918073 -0.8722123430822659 -0.4119999471643996" pbc="F F F"
C       -1.18711904      -1.14928422       0.33221457       2.21251271      -2.80225313       2.86143827
Cl      -1.83014065      -0.28797050      -0.88441805      -1.72595193       2.45150926      -4.15574874
H       -0.80830037      -2.16252211       0.05141735      -0.16993372       0.82871010      -0.10229705
H       -0.38469095      -0.58916502       0.80190742       0.33452725      -0.02194507       0.14204909
H       -1.98760161      -1.30059334       1.01111519      -0.52490385      -0.36812704       1.21793003
Cl       2.32279296       0.79258972       0.71884443      -0.12625046      -0.08789412       0.03662839
6
Properties=species:S:1:pos:R:3:forces:R:3 energy=-26135.417724103343 free_energy=-26135.417724103343 dipole="1.088021851361876 -1.4053002679548945 -1.3109939282353904" pbc="F F F"
C        0.85538412      -1.36177818      -0.14898268      -0.95379818      -1.23200734       3.25616212
Cl       0.82673713      -0.89528297      -1.79885638      -0.51360600       0.13696780      -1.30268004
H        1.83112502      -1.09140670       0.19846696       0.55368192       0.30615805       0.48944834
H        0.08392094      -0.86905750       0.55517032       0.96289477      -0.25950021      -1.56214424
H        0.78602562      -2.48158230       0.04824894      -0.12165003       1.20220791      -0.85288421
Cl      -1.19335769       1.48298115       1.82653282       0.07247752      -0.15382621      -0.02790197
6
Properties=species:S:1:pos:R:3:forces:R:3 energy=-26135.582104581816 free_energy=-26135.582104581816 dipole="1.041426685641233 -1.3260532024926037 0.9654690947303125" pbc="F F F"
C        0.20103044      -1.63872200       0.40936489       0.18501937      -0.01950799      -1.92095379
Cl       1.41450892      -0.57660002       1.08552551       0.74322396       0.41947953       0.28433072
H       -0.33953947      -1.07955291      -0.39785434       0.51512166      -0.47075597       0.50163937
H        0.68496853      -2.58219826       0.07939811      -0.29849179       0.65045971      -0.02156509
H       -0.47144953      -1.84848675       1.18287677      -1.15549896      -0.41658075       1.14479679
Cl      -1.47903778       1.28850439      -1.24880386       0.01062576      -0.16309453       0.01175200
6
Properties=species:S:1:pos:R:3:forces:R:3 energy=-26135.456109227667 free_energy=-26135.456109227667 dipole="1.2753407041629543 0.9531159178964679 1.2326013246858198" pbc="F F F"
C        0.70498646       1.63544891       0.78024400      -0.42324143       0.87748198       1.32883391
Cl       1.24807134      -0.00729070       1.12701009       0.05812000      -0.14861955       0.16466714
H       -0.11194725       1.94331726       1.51364156       1.13592516      -0.48462055      -0.90165937
H        1.58303197       2.30160930       0.87625355      -0.50701146      -0.21683485      -0.00957232
H        0.30498420       1.66819447      -0.21339386      -0.27498067      -0.16576957      -0.58076447
Cl      -1.53743297      -0.71496044      -1.45325618       0.01118841       0.13836253      -0.00150488
6
Properties=species:S:1:pos:R:3:forces:R:3 energy=-26135.659526242936 free_energy=-26135.659526242936 dipole="-2.029496701963337 0.44973624345887847 -1.0095522826912693" pbc="F F F"
C       -1.09944286      -0.00779065      -0.11696007       1.08221465      -0.61296775       2.06700120
Cl      -2.02539339       0.68626584      -1.39069207      -0.70434672       0.81368379      -0.95871734
H       -1.11321269      -1.07936572      -0.24464177      -0.09824580      -0.36229914       0.11426204
H       -0.04203849       0.27168595      -0.10730748      -0.10858952       0.24272247      -0.31079707
H       -1.48905401       0.25105970       0.89424007      -0.01924764      -0.11691802      -0.84700308
Cl       2.47309065      -0.66779909       1.41490020      -0.15178498       0.03577865      -0.06474573
6
Properties=species:S:1:pos:R:3:forces:R:3 energy=-26135.607298199677 free_energy=-26135.607298199677 dipole="-1.4855512466160672 1.0576423639773882 -1.111275350585494" pbc="F F F"
C       -0.68533416       1.34954338      -0.28291048      -0.97945947      -0.75003439      -0.16000776
Cl      -1.64613730       0.36161972      -1.42168408      -0.45078699       0.04416744      -0.27053207
H       -0.11358175       2.00466126      -0.87114750       0.49704380       1.33377394      -0.70461685
H       -1.36541997       1.82907571       0.42389145       0.32936985      -0.08944402      -0.04755570
H       -0.00032365       0.64809977       0.11373454       0.69325729      -0.66135910       1.25153509
Cl       1.92040270      -0.94630398       1.52702195      -0.08942448       0.12289613      -0.06882271
6
Properties=species:S:1:pos:R:3:forces:R:3 energy=-26135.54905180078 free_energy=-26135.54905180078 dipole="-1.3141785701354618 1.046816243345257 -1.1359390356363415" pbc="F F F"
C       -0.45263641       1.53168182      -0.63348634       0.62295336      -0.37244047      -1.52023004
Cl      -1.59780557       0.21179106      -1.16368172       0.33163343       0.97227603       0.36932044
H        0.29732247       1.06314736      -0.02385684       0.63216876      -0.63443374       0.07105890
H       -0.00867017       1.98547650      -1.56729544      -0.51511931      -0.51323536       1.06722373
H       -0.87992821       2.28318283      -0.00340130      -1.02853413       0.39090588       0.06732913
Cl       1.76797826      -0.88235500       1.42365674      -0.04310211       0.15692765      -0.05470216
6
Properties=species:S:1:pos:R:3:forces:R:3 energy=-26135.50033066367 free_energy=-26135.50033066367 dipole="-1.802669945885039 0.1875859618774144 -0.535637977461792" pbc="F F F"
C       -1.78242879      -0.33289055       0.30342298       2.00497829      -0.65345437       0.93166043
Cl      -1.18293950       0.56460234      -1.07427363       0.03735491       0.17372466      -0.77704215
H       -2.41295634      -1.15175918       0.00754130      -0.61921543      -0.04436709      -0.20405489
H       -0.89157411      -0.76161933       0.83459324      -0.49914357       0.41009287      -0.54037222
H       -2.20464596       0.39924120       0.95501374      -0.81372492       0.18193695       0.50863032
Cl       1.94350374      -0.40876034       0.92036845      -0.11024928      -0.06793302       0.08117850
6
Properties=species:S:1:pos:R:3:forces:R:3 energy=-26135.44998352943 free_energy=-26135.44998352943 dipole="1.0352465853397528 -1.4884191743680846 -0.9420803478660413" pbc="F F F"
C        0.98020752      -1.64146426       0.05516090      -1.01903585       0.84310044      -0.30569384
Cl       0.68016794      -0.77161057      -1.44916827      -0.07209190      -0.17815765      -0.79488987
H        2.00353889      -1.50790005       0.25743538       1.25760757      -0.13315733       0.56578660
H        0.34965528      -1.13606990       0.74771098      -0.24969220       0.63246224       0.98797097
H        0.65115712      -2.65194255       0.03287362       0.02247798      -1.02421594      -0.49488885
Cl      -1.09770415       1.47834984       1.40096343       0.06073440      -0.14003176       0.04171499
6
Properties=species:S:1:pos:R:3:forces:R:3 energy=-26135.549921064452 free_energy=-26135.549921064452 dipole="-1.3614679195169348 1.083460430062701 -1.1628842354215478" pbc="F F F"
C       -0.49758935       1.54263712      -0.67141128       2.17494321       0.03760545       0.92295951
Cl      -1.58032913       0.26334025      -1.16140237      -0.26044618      -0.26727077      -0.38136270
H        0.31106938       1.13530826       0.00601697      -0.71560607      -0.06624558      -0.89678439
H       -0.02568691       2.09108508      -1.50530701      -0.39998623      -0.52608038       0.07090080
H       -1.02289414       2.23591818      -0.05842400      -0.75459233       0.66571379       0.33870722
Cl       1.76989069      -0.94132684       1.43317943      -0.04431240       0.15627750      -0.05442043
6
Properties=species:S:1:pos:R:3:forces:R:3 energy=-26135.549620129408 free_energy=-26135.549620129408 dipole="-0.10555401244276011 -1.9539774534072556 -0.399377128082912" pbc="F F F"
C       -0.58865865      -1.29927377       0.39423387      -1.36540970       2.89383427      -2.14325194
Cl       0.36376880      -1.88684281      -0.96985810       0.08572809      -0.60890994      -0.34721584
H       -1.66072362      -1.53440556       0.30254501       0.60141909      -0.57562391       0.20933708
H       -0.09862557      -1.50160913       1.27589331       0.75126507      -1.03316113       2.07496340
H       -0.54319217      -0.18654572       0.29480555      -0.02219103      -0.54634078       0.20166866
Cl      -0.09885087       2.41868817       0.78302107      -0.05081153      -0.12979851       0.00449863
6
Properties=species:S:1:pos:R:3:forces:R:3 energy=-26135.52875039377 free_energy=-26135.52875039377 dipole="-1.1537374094536608 0.7964039785571928 -1.4223125945351611" pbc="F F F"
C       -0.42137313       1.45442065      -1.13239754       0.39375108      -1.38293267       1.10154552
Cl      -1.35604837      -0.10064826      -1.12362946       0.21849620       0.45099556       0.04891587
H       -1.12022118       2.22491121      -0.89115249      -0.37924461       0.62989869       0.03712699
H        0.38742012       1.38697837      -0.36866185      -0.57948276      -0.20333184      -0.45990851
H       -0.03033430       1.52614094      -2.12192785       0.33714691       0.35038486      -0.65656279
Cl       1.52051531      -0.53822850       1.60346086       0.00933318       0.15498540      -0.07111708
6
Properties=species:S:1:pos:R:3:forces:R:3 energy=-26135.222725092415 free_energy=-26135.222725092415 dipole="-1.7136422626140093 -0.9132403010175262 -0.5133063790237854" pbc="F F F"
C       -1.09394195      -1.54749009      -0.07771560       2.05086461       1.51821742       3.12267663
Cl      -1.62233513      -0.01972847      -0.67934157      -0.63486697       0.79422247      -0.40308332
H       -0.82316721      -2.16847284      -0.81908849      -0.12557636      -2.52035714      -3.09722600
H       -0.06090098      -1.40879402       0.33922737      -0.91828230       0.48655029       0.39601988
H       -1.74505899      -1.96031868       0.67768078      -0.32666916      -0.12942151      -0.02232608
Cl       2.06773702       0.70149969       0.70004791      -0.04546982      -0.14921154       0.00393890
6
Properties=species:S:1:pos:R:3:forces:R:3 energy=-26135.53945489656 free_energy=-26135.53945489656 dipole="1.2091242988917505 -1.4336269033694802 0.8780328346601809" pbc="F F F"
C        0.26677077      -1.52431917       0.23702084      -0.12953927       1.62345821      -1.46503358
Cl       1.58846512      -0.77767609       1.10769262       1.10625298       0.42029057       0.42104352
H       -0.52214946      -0.73477700       0.19127031       0.37071500      -0.85142276      -0.55099410
H        0.63086780      -1.90818010      -0.73455025      -0.33893656       0.67943402       0.28718435
H        0.02080914      -2.34987892       0.80636457      -1.03209320      -1.73360984       1.23714775
Cl      -1.68253415       1.43610701      -1.19547955       0.02360104      -0.13815020       0.07065206
6
Properties=species:S:1:pos:R:3:forces:R:3 energy=-26135.593954974087 free_energy=-26135.593954974087 dipole="-1.7036992731283354 0.8797282951590303 -1.0015894367559435" pbc="F F F"
C       -1.05734822       0.98448848       0.03183022       1.36968575       1.46048003      -1.17068750
Cl      -1.59894725       0.41826700      -1.54433548      -0.23919801       0.08169266      -0.67276182
H       -0.05185854       0.65141439       0.17871435       0.56013588      -0.73119233       0.45394153
H       -1.01847685       2.07174677       0.09687372      -0.27032711       0.14238204      -0.43317722
H       -1.74391722       0.64649430       0.71551958      -1.31864080      -1.06085422       1.86546698
Cl       2.03721456      -0.84764087       1.50536936      -0.10165570       0.10749182      -0.04278198
6
Properties=species:S:1:pos:R:3:forces:R:3 energy=-26135.44621935919 free_energy=-26135.44621935919 dipole="-1.0979919320748446 0.1614338357442624 -1.5695164375665427" pbc="F F F"
C       -0.24419925      -0.29335293      -1.82381572       0.89808814       1.11760092       1.39217347
Cl      -1.45789639       0.49227231      -0.78533220      -0.76616599      -0.27515151      -0.35173953
H        0.51022038      -0.52564754      -1.07521421       0.58993160       0.01463324      -0.20260433
H       -0.49970371      -1.18979498      -2.32533722      -1.06337171      -0.80716955      -0.42032003
H        0.07126416       0.47589687      -2.51327804       0.32173421       0.00161652      -0.26359271
Cl       1.53830943      -0.35763411       1.57142502       0.01978375      -0.05152962      -0.15391687
6
Properties=species:S:1:pos:R:3:forces:R:3 energy=-26135.533901538613 free_energy=-26135.533901538613 dipole="-1.2285527904059586 0.42646849137627096 -1.5830846862399555" pbc="F F F"
C       -1.25426020       1.07010028      -0.72427727       2.15461670      -1.72796469       0.77731214
Cl      -0.74623891      -0.32310804      -1.76356274      -0.46087365       0.39244486      -0.20072779
H       -0.78180726       1.94560416      -1.09036970       0.11628034       0.90933346      -0.60021917
H       -2.29927311       1.11148147      -0.62695627      -1.35910190       0.07699841      -0.09744206
H       -0.75049188       0.80730490       0.21455568      -0.31951129       0.24695403       0.18852760
Cl       1.28014989      -0.14933991       2.05168930      -0.13141019       0.10223392      -0.06745073
6
Properties=species:S:1:pos:R:3:forces:R:3 energy=-26135.601987977014 free_energy=-26135.601987977014 dipole="-1.8480333796799937 0.3512049428358655 -0.8898039721260127" pbc="F F F"
C       -1.54296788      -0.12078310       0.10549207       1.60168311      -0.49981723       0.81141535
Cl      -1.43050270       0.64664245      -1.44107696      -0.39656593       0.43635015      -1.12165296
H       -2.08044239       0.46652900       0.80844616      -0.45557755       0.74227818       0.49549295
H       -1.94990456      -1.09991116       0.08411582      -0.77665756      -0.90505244      -0.56494747
H       -0.51291502      -0.27189748       0.42822890       0.18007178       0.23385222       0.40038233
Cl       2.08246871      -0.57997820       1.36777873      -0.15295386      -0.00761089      -0.02069021
6
Properties=species:S:1:pos:R:3:forces:R:3 energy=-26135.559736506773 free_energy=-26135.559736506773 dipole="-0.8478550182981707 -0.23682821911656207 -1.8383618009522003" pbc="F F F"
C       -0.13370207      -0.93122405      -1.42418102       1.74182724      -0.10532517       0.78337921
Cl      -1.14786326       0.45352596      -1.50973869      -1.26106129       1.45102066      -0.31837388
H        0.32482955      -1.07387631      -2.41055881      -0.09329044      -0.27253296       0.30466222
H        0.62836342      -0.67075019      -0.64365598      -0.46787352      -0.60573855      -0.55759936
H       -0.73851654      -1.76224012      -1.09163538       0.07587222      -0.39536608      -0.06105323
Cl       1.18705936      -0.03829737       2.11015774       0.00452578      -0.07205790      -0.15101496
6
Properties=species:S:1:pos:R:3:forces:R:3 energy=-26135.45506122674 free_energy=-26135.45506122674 dipole="-0.08178390026308852 -0.8860826132984811 1.789089336161165" pbc="F F F"
C        0.71018763      -0.27401591       1.76284489      -0.10108867       0.74877394      -1.67757825
Cl      -0.73690268      -1.09488510       1.11193091       0.31268005      -0.02231419       0.23747726
H        0.93051077       0.58785879       1.12292188      -0.12204603      -0.35187359      -0.46494448
H        0.45955743       0.17013400       2.68681929      -0.15445387      -0.10400616       1.47536718
H        1.57220979      -0.92658836       1.74674294      -0.01995449      -0.30596479       0.31656133
Cl       0.41204966       1.19251978      -1.86720498       0.08486301       0.03538479       0.11311696
6
Properties=species:S:1:pos:R:3:forces:R:3 energy=-26135.400452688657 free_energy=-26135.400452688657 dipole="1.8102711394144126 0.8549037735743357 -0.41954876326264884" pbc="F F F"
C        1.82366666       0.32430808       0.47044868       0.33319267      -0.19973271       0.33238746
Cl       1.09585587       0.97475584      -1.01070590      -0.30248641       0.32563806      -0.26981354
H        2.15549604       1.20503090       1.09288980      -0.58642869      -1.05458113      -0.39701081
H        1.04026011      -0.35586643       0.96657774       1.29575485       0.97252746      -0.66374606
H        2.74942280      -0.16820651       0.06843494      -0.90969410      -0.04368131       0.91973028
Cl      -1.88278960      -1.10399900       0.79080506       0.16966168      -0.00017037       0.07845266
6
Properties=species:S:1:pos:R:3:forces:R:3 energy=-26135.52632440948 free_energy=-26135.52632440948 dipole="-1.1815031953432757 -0.014452914962957369 -1.5190070972473324" pbc="F F F"
C       -0.33890762      -0.63908045      -1.40839718       2.10362948      -1.47065578       1.40415045
Cl      -1.50959305       0.53860371      -1.12303340      -2.05517017       2.16223454       0.16961583
H        0.17911337      -0.44935615      -2.34725359       0.12486797      -0.09214518       0.09482505
H        0.33320526      -0.62070096      -0.48923823      -0.25250731      -0.10711920      -1.24885805
H       -0.85625714      -1.58920871      -1.40954028       0.12347721      -0.43617531      -0.29789639
Cl       1.63419980      -0.24645885       1.72095325      -0.04429718      -0.05613907      -0.12183689
6
Properties=species:S:1:pos:R:3:forces:R:3 energy=-26135.57714296452 free_energy=-26135.57714296452 dipole="-1.5193353014201596 -0.02705079021827061 -1.5591478424923109" pbc="F F F"
C       -1.40669911      -0.45851876      -0.43705677       0.02257740      -0.12576808       0.38144293
Cl      -1.02711973       0.36359156      -1.96907345       0.23471538       0.34792565      -0.41984561
H       -0.48096375      -0.51573164       0.18679240      -0.52282274      -0.27207248      -0.53635611
H       -2.09672227       0.23516863       0.10525709       0.16144099      -1.07076900      -0.46472216
H       -1.81477734      -1.45313410      -0.79333265       0.26278313       1.16021727       1.13819474
Cl       1.62862794      -0.15894176       2.13140864      -0.15869415      -0.03953336      -0.09871379
6
Properties=species:S:1:pos:R:3:forces:R:3 energy=-26135.452268275003 free_energy=-26135.452268275003 dipole="1.4156416469160098 1.222988816951687 0.6085849120018162" pbc="F F F"
C        0.79647784       1.50612867      -0.21655098      -1.70633083      -0.69147908      -1.92153102
Cl       1.44596287       0.56851467       1.13188432       0.09324164       0.64505201       0.07837673
H        1.47809070       1.56771579      -1.05194991       0.91950967      -0.00732658       0.13225032
H       -0.01990653       0.88250046      -0.67380363       0.29367204       0.40294589       0.79836403
H        0.40095006       2.52593479      -0.07530065       0.32955355      -0.48446223       0.95231726
Cl      -1.76868508      -1.22030795      -1.00730163       0.07035395       0.13526998      -0.03977732
6
Properties=species:S:1:pos:R:3:forces:R:3 energy=-26135.565361090496 free_energy=-26135.565361090496 dipole="-1.772406723496307 -0.5933692161362233 0.4811506289554585" pbc="F F F"
C       -1.02327142      -1.29805901       0.30559524       2.16207108      -0.16823192      -1.85818928
Cl      -1.80374988       0.22571519       0.47627099      -0.80603652       1.17930893       0.41225760
H       -1.04996384      -1.88146309       1.18292172      -0.02667114      -0.43110348       1.32593636
H       -1.52861523      -1.84891762      -0.47127358      -0.19410756      -0.23039892      -0.38506801
H        0.04437361      -1.09543850      -0.02817167      -1.05648455      -0.21914791       0.48819659
Cl       2.22250847       0.35130632      -0.59924557      -0.07877131      -0.13042670       0.01686674
6
Properties=species:S:1:pos:R:3:forces:R:3 energy=-26135.652867810004 free_energy=-26135.652867810004 dipole="-1.8401780678456265 0.7941545478371103 -0.8157819082472859" pbc="F F F"
C       -1.42180019       0.86957457       0.26005690       0.29700178      -0.09475136       0.89445449
Cl      -1.48095280       0.39911470      -1.45022168      -0.05412898      -0.00182681      -0.02571492
H       -2.31607998       0.48604863       0.78018565       0.44208274      -0.01980528      -0.28942949
H       -0.48242944       0.51112148       0.73031398      -0.45445697      -0.18271267      -0.39450513
H       -1.42363269       1.95229663       0.33314846      -0.07824806       0.20249438      -0.19972040
Cl       2.08273451      -0.77760617       1.30968739      -0.15225051       0.09660174       0.01491545
6
Properties=species:S:1:pos:R:3:forces:R:3 energy=-26135.554042472544 free_energy=-26135.554042472544 dipole="1.8690242356869362 0.1341755964175521 0.6735533433112082" pbc="F F F"
C        1.66988910      -0.55547328      -0.08851746      -2.21622529      -0.07912155      -0.96566916
Cl       1.35922141       0.69231664       1.09228279       0.28878203       0.55354512       0.70727219
H        2.58298860      -0.40707515      -0.60363730       1.02814764       0.22219392      -0.33058215
H        1.59017406      -1.52141469       0.36190780       0.27121809      -0.59999037       0.50623326
H        0.80290106      -0.49550070      -0.77921374       0.47467929      -0.04955611       0.11548531
Cl      -2.06649673      -0.43518908      -1.03326180       0.15339824      -0.04707101      -0.03273944
6
Properties=species:S:1:pos:R:3:forces:R:3 energy=-26135.613408636844 free_energy=-26135.613408636844 dipole="2.03196081141091 0.41726909482757757 -0.09013531520318227" pbc="F F F"
C        1.29742389       0.40500368       0.79823000      -1.61067485       1.18254194      -0.02761226
Cl       1.94271887       0.27129191      -0.86126486       0.20731661      -0.39621058       0.13488114
H        1.60442128      -0.36527947       1.48619476       0.53476936      -0.54523255      -0.20055389
H        1.67517615       1.38642343       1.15839461      -0.56604448      -0.60490304      -0.05578502
H        0.16160417       0.34186349       0.72397861       1.27207398       0.30729344       0.08862179
Cl      -2.48015440      -0.44726964       0.49502912       0.16255937       0.05651079       0.06044824
6
Properties=species:S:1:pos:R:3:forces:R:3 energy=-26135.395865567025 free_energy=-26135.395865567025 dipole="-0.8419048544906929 -0.7034875402440823 -1.5413385734454035" pbc="F F F"
C       -0.61296120      -1.32176239      -0.75127277       0.10914504      -1.89781500       2.59625510
Cl      -0.74326121       0.04471250      -1.69940667      -0.05433427       2.35314343      -2.45600546
H       -0.33931579      -2.26409062      -1.26976487      -0.52786181       0.62502746       0.01971811
H        0.14232599      -1.10263693       0.00552411       0.18145299      -0.11029854       0.13248447
H       -1.55759520      -1.33710290      -0.18258482       0.31943931      -0.85596296      -0.24046891
Cl       1.00083240       0.53687139       1.99508897      -0.02784125      -0.11409439      -0.05198333
6
Properties=species:S:1:pos:R:3:forces:R:3 energy=-26135.574135074457 free_energy=-26135.574135074457 dipole="-1.8215684494891966 0.07139978336291641 -0.6691713003861613" pbc="F F F"
C       -1.55144858      -0.61223838       0.07464490       0.82048623      -1.47862723       1.84413167
Cl      -1.42488116       0.63188929      -1.07090543      -0.21563545       1.60421730      -1.60789157
H       -1.69749773      -1.57849373      -0.41172314      -0.10770779       0.08180863      -0.02846313
H       -0.57384414      -0.63117029       0.59747049      -0.39306905      -0.17661580      -0.03682562
H       -2.35371482      -0.42143098       0.79462519       0.03369219       0.02117863      -0.19057381
Cl       2.08204635      -0.34963995       1.01773828      -0.13776612      -0.05196153       0.01962246
6
Properties=species:S:1:pos:R:3:forces:R:3 energy=-26135.450987787124 free_energy=-26135.450987787124 dipole="-1.4559831979787266 -0.17618903789698223 -1.3510088647736203" pbc="F F F"
C       -1.69248574      -0.65950458      -0.48786094      -1.08111386       0.83425388       1.00723657
Cl      -0.71067326       0.31738320      -1.58331736      -0.48002407       0.09627022      -0.27572848
H       -1.14799660      -0.68503834       0.42948425       0.62352476      -0.01396188       0.78574957
H       -2.72165947      -0.27128073      -0.22625164       1.10782106       0.07508359      -0.83199604
H       -1.78867365      -1.65511428      -0.83830067      -0.03135338      -0.92439933      -0.68688465
Cl       1.44500450      -0.01967843       1.76666987      -0.13885451      -0.06724648       0.00162302
6
Properties=species:S:1:pos:R:3:forces:R:3 energy=-26135.598740106445 free_energy=-26135.598740106445 dipole="-1.233144103867404 0.977166571257611 -1.2059787033905152" pbc="F F F"
C       -0.28814373       1.39016740      -1.12850077       0.75251834      -0.20318595       0.80260296
Cl      -1.59767083       0.25363560      -0.82870238      -0.58051027      -0.28566877      -0.22161526
H        0.48846959       1.11099170      -0.39515891      -0.08853230       0.18952172      -0.30273994
H        0.09403176       1.28430504      -2.13911751      -0.09728917      -0.04191293      -0.12413703
H       -0.66321856       2.38998980      -0.94190994       0.01667495       0.19675444      -0.06512926
Cl       1.69759346      -0.86071231       1.30989896      -0.00286156       0.14449148      -0.08898147
6
Properties=species:S:1:pos:R:3:forces:R:3 energy=-26135.443483366245 free_energy=-26135.443483366245 dipole="1.2947943130734618 1.3940434896793765 0.46957732491897336" pbc="F F F"
C        0.31244975       1.35300165       0.85603010      -1.98903991      -1.26293517       1.12370059
Cl       1.67228968       0.93546387      -0.04896170       1.82332290      -0.26853668      -1.27681696
H        0.38318931       0.93283100       1.83410357       0.47298297      -0.07365169       1.00262012
H        0.11364953       2.37691075       0.92249121       0.07143707       1.78792361      -0.07570512
H       -0.57114984       0.84558042       0.50750943      -0.38298813      -0.29936903      -0.84681989
Cl      -1.77603943      -1.51203559      -0.33388723       0.00428510       0.11656896       0.07302126
6
Properties=species:S:1:pos:R:3:forces:R:3 energy=-26135.608709562104 free_energy=-26135.608709562104 dipole="1.4989593890201833 1.4832285550154225 0.48511659571515536" pbc="F F F"
C        0.31032249       1.16050048       0.60919797      -1.44916966      -1.92468362      -0.68991342
Cl       1.97440312       1.17697491       0.16098165       1.48580355       0.07326336      -0.61782522
H        0.25983507       1.56525332       1.56265954      -0.27179510       0.92911156       1.89654020
H       -0.30157201       1.73523643      -0.07351056      -0.00265545       0.00238386      -0.27552837
H       -0.06410278       0.10703817       0.66336948       0.16439498       0.82241141      -0.38891755
Cl      -2.07653561      -1.66706121      -0.42859280       0.07342169       0.09751343       0.07564437
6
Properties=species:S:1:pos:R:3:forces:R:3 energy=-26135.61108935077 free_energy=-26135.61108935077 dipole="-0.7125798990600406 1.720194464983819 1.2363293241581665" pbc="F F F"
C       -0.91435984       0.72576394       0.42558381      -1.23442138      -1.00123951      -0.55025331
Cl      -0.22396884       1.92163778       1.48511246       0.61377057       0.19282511       0.86641326
H       -1.65192432       0.06035204       0.89208417       0.17989479       0.45181857       0.51542314
H       -1.44081769       1.31752896      -0.28974513      -0.39821845       0.12971845      -0.82706235
H       -0.24722810       0.04295930      -0.07802025       0.92306373       0.09985571      -0.09267365
Cl       0.62873797      -2.20793843      -1.64421543      -0.08408925       0.12702167       0.08815291
6
Properties=species:S:1:pos:R:3:forces:R:3 energy=-26135.663634744044 free_energy=-26135.663634744044 dipole="-1.3328482199421894 1.0054346585056197 -1.145098069193299" pbc="F F F"
C       -0.44436076       1.43318406      -0.60431982       1.03390000      -0.56380825      -0.45186996
Cl      -1.65121696       0.24887979      -1.20622240      -0.01848412       0.39258322      -0.10611214
H        0.35462568       0.82166760      -0.15747215      -0.30765667       0.21162520       0.40157906
H        0.03386143       1.97118149      -1.44336100      -0.64683548      -0.13593980       0.18716354
H       -0.91707705       2.11094680       0.09841149      -0.01976972      -0.03567810       0.05556711
Cl       1.81680330      -0.87390095       1.45369564      -0.04115401       0.13121773      -0.08632761
6
Properties=species:S:1:pos:R:3:forces:R:3 energy=-26135.602085014747 free_energy=-26135.602085014747 dipole="-1.4289753160945744 0.854260593071414 -1.1645408257375722" pbc="F F F"
C       -0.51943999       1.29961718      -0.64064114       0.86802811      -0.43549660       0.98220047
Cl      -1.74055681       0.15555511      -1.23807560      -0.43754318      -0.24992426      -0.13676243
H        0.22409272       0.69231788      -0.02378405      -0.47626518       0.70109117      -1.06856508
H       -0.10156015       1.77792310      -1.56523447      -0.20179037      -0.11277752       1.29429978
H       -1.01865085       1.95811765       0.10749905       0.34113155      -0.02973257      -0.99054354
Cl       1.94203159      -0.72180300       1.49726072      -0.09356094       0.12683979      -0.08062919
6
Properties=species:S:1:pos:R:3:forces:R:3 energy=-26135.531089745986 free_energy=-26135.531089745986 dipole="-1.8202658221050778 -0.9155313949177507 -0.506881503040964" pbc="F F F"
C       -0.92919377      -1.51114698      -0.53914879       0.62289605      -0.68395129       0.61722085
Cl      -1.85704929      -0.01903474      -0.26701491       0.21944645      -0.22051212       0.01023306
H       -0.78640629      -1.66611138      -1.59542887      -0.17447842       0.07964974      -0.47771342
H        0.08199767      -1.50182564      -0.08749466      -0.56057696       0.69043794       0.01949805
H       -1.47800734      -2.36045470      -0.11186524      -0.06408300       0.27791983      -0.13769354
Cl       2.23393001       0.68823094       0.50072050      -0.04320412      -0.14354410      -0.03154501
6
Properties=species:S:1:pos:R:3:forces:R:3 energy=-26135.627829004086 free_energy=-26135.627829004086 dipole="-1.4306836139033747 -0.01618755680083122 -1.5018771779656888" pbc="F F F"
C       -1.31609329      -0.40890429      -0.40236137      -0.81845041      -0.50206558       2.94442939
Cl      -1.00759486       0.33332347      -1.91921541       0.14346707       0.48896346      -1.06073406
H       -0.48496256      -0.31118345       0.31835043       0.18388776       0.11730869      -0.54699299
H       -2.18799317       0.04052238       0.14007969       0.52891823      -0.06395609      -0.83319263
H       -1.53943965      -1.47316188      -0.48187600       0.09386091      -0.01265414      -0.44383127
Cl       1.57328432      -0.14519588       2.05620825      -0.13168355      -0.02759634      -0.05967844
6
Properties=species:S:1:pos:R:3:forces:R:3 energy=-26135.54125272437 free_energy=-26135.54125272437 dipole="1.569550123929413 0.947617988933138 0.8152283608386439" pbc="F F F"
C        1.13777967      -0.05690360       0.99433912       0.01768045      -1.59733086       1.28812884
Cl       1.34958159       1.48279421       0.35602832       0.27396106       2.71935943      -1.28955388
H        1.23720513       0.04689915       2.06572623      -0.43789657      -0.25000669       0.46131524
H        0.21431021      -0.50373485       0.66669894      -0.59725766      -0.17383367      -0.08270120
H        1.95945717      -0.66277676       0.69401866       0.64563694      -0.70377259      -0.47098658
Cl      -1.83206768      -1.43167888      -0.79035448       0.09787578       0.00558437       0.09379758
6
Properties=species:S:1:pos:R:3:forces:R:3 energy=-26135.642128541156 free_energy=-26135.642128541156 dipole="1.766565925801291 1.2096803180871432 -0.17105051868658638" pbc="F F F"
C        0.65477969       1.47673439      -0.37186911      -0.34237892      -1.11202812       0.09425223
Cl       2.07395491       0.47856059       0.07103600       0.06775367       0.22227756      -0.26498308
H       -0.21225135       0.92130931      -0.03822740      -0.35748219      -0.28436527      -0.02732354
H        0.70595477       2.38301682       0.17311953       0.22894587       1.04203330       0.40171615
H        0.57896704       1.63409696      -1.44010078       0.32075952      -0.01614997      -0.18724530
Cl      -2.32630500      -1.11932186       0.09207177       0.08240204       0.14823250      -0.01641647
6
Properties=species:S:1:pos:R:3:forces:R:3 energy=-26135.38448525629 free_energy=-26135.38448525629 dipole="1.632093603317282 1.0583289131986016 -0.10962291052003818" pbc="F F F"
C        0.62714467       1.26012562      -0.47023388      -3.14731149       1.97241449       0.48377359
Cl       1.94373686       0.52441178       0.21539681       3.54035296      -1.97057971       1.29877732
H       -0.19288318       0.50916139      -0.49688181       0.12595835       0.60500020      -0.40901772
H        0.35863370       2.03762613       0.32125753      -0.22390542      -0.57429623      -1.56019453
H        0.89743059       1.71855268      -1.43087347      -0.37062747      -0.12132240       0.22636611
Cl      -2.18645396      -1.07264398      -0.01039458       0.07553307       0.08878364      -0.03970478
6
Properties=species:S:1:pos:R:3:forces:R:3 energy=-26135.47645208306 free_energy=-26135.47645208306 dipole="-0.9864122946252032 0.7931454587559317 -1.478138029532139" pbc="F F F"
C       -0.53969680       1.49097591      -0.93047787       0.45640034       1.42574158       0.42428246
Cl      -0.98971839      -0.08738373      -1.39984859      -0.69810326      -1.59712186      -1.02577908
H       -0.33940243       2.17213711      -1.77889761      -0.14242198      -0.49145843       0.23745160
H       -1.33741826       1.89128626      -0.31061355       0.01521221       0.21846537       0.06219998
H        0.34200407       1.34259043      -0.32507376       0.37066832       0.30441687       0.35700266
Cl       1.21053061      -0.57149846       1.78376598      -0.00175564       0.13995648      -0.05515763
6
Properties=species:S:1:pos:R:3:forces:R:3 energy=-26135.58196894857 free_energy=-26135.58196894857 dipole="2.0148091503543926 0.2399607116608869 -0.3425371873468283" pbc="F F F"
C        1.57509648       0.19619610       0.65674111      -2.21146611      -0.09417547       0.34557029
Cl       1.65392910       0.18344116      -1.09629530       0.49533766      -0.12497980      -0.67756713
H        0.50675552       0.42881958       0.85851212       0.52567322      -0.05457444       0.16203575
H        1.72657246      -0.79758047       1.07187719       0.46350064       0.02399880      -0.11315017
H        2.20203450       0.96840425       1.05437243       0.57293113       0.20959855       0.22665516
Cl      -2.31371271      -0.26696589       0.78891146       0.15402347       0.04013238       0.05645609
6
Properties=species:S:1:pos:R:3:forces:R:3 energy=-26135.48319054316 free_energy=-26135.48319054316 dipole="2.136293537886118 0.008599621277291032 -0.23339426754480927" pbc="F F F"
C        1.42979374       0.54040121       0.55477410       3.00371400      -0.58775204       1.68350331
Cl       1.83584881      -0.46505974      -0.84969741      -0.28945051       0.05697648      -0.24749319
H        1.47616216      -0.13467353       1.45125808      -0.66164084       0.65616838      -0.87237649
H        2.30741578       1.22069587       0.69510540      -0.65257522      -0.33058079      -0.22842823
H        0.55862752       1.12373191       0.47886105      -1.52098057       0.13304749      -0.37142462
Cl      -2.44375278       0.21913051       0.58708477       0.12093313       0.07214048       0.03621922
6
Properties=species:S:1:pos:R:3:forces:R:3 energy=-26135.391384055125 free_energy=-26135.391384055125 dipole="-1.739232518968529 -0.9624931777849355 -0.4904821499409083" pbc="F F F"
C       -1.86745169      -0.31445888       0.30660302       2.50100855      -1.35577180       0.52093276
Cl      -0.94907512      -1.18278487      -0.99909119      -0.34853243       0.16880812      -0.01561565
H       -2.58006753      -1.07539295       0.65283537       0.28441426       0.65523174       0.46760132
H       -1.02992111       0.06564597       0.96820600      -1.17329035      -0.74493611      -0.15868421
H       -2.30231854       0.53270593      -0.11370530      -1.08682822       1.29538781      -0.87943481
Cl       1.74990920       1.30289271       0.85234920      -0.17677181      -0.01871976       0.06520059
6
Properties=species:S:1:pos:R:3:forces:R:3 energy=-26135.576133150833 free_energy=-26135.576133150833 dipole="2.030357028217905 0.5661732212789055 -0.36155760385511004" pbc="F F F"
C        1.57187488      -0.36000950       0.18717356      -0.31469796      -0.08060897       0.19590968
Cl       1.60628699       1.16791614      -0.72909872      -0.23039897      -0.15817407      -0.48074688
H        0.65304654      -0.95741899       0.11834694      -0.20495756       0.72411348      -0.29010956
H        2.40428223      -0.96896228      -0.11599786       0.52647220      -0.13001176      -0.16911323
H        1.69698755      -0.00378198       1.18955342       0.06492804      -0.30580318       0.74372676
Cl      -2.27404835      -0.99105638       0.63179041       0.15865425      -0.04951550       0.00033323
6
Properties=species:S:1:pos:R:3:forces:R:3 energy=-26135.429537788026 free_energy=-26135.429537788026 dipole="-1.7348304519778344 -0.7615287672242215 -0.34331528210876044" pbc="F F F"
C       -1.13182834      -1.20838133       0.36627723       1.51851327      -2.43445570       1.05962900
Cl      -1.62819166      -0.14336722      -0.84099953      -0.89813153       1.28766212      -2.25890572
H       -1.34786997      -2.31504082       0.14876738       0.34724021       1.63085014       0.03378019
H       -0.05345380      -1.01181605       0.55154473      -0.45895840      -0.32313421      -0.05051031
H       -1.67971249      -0.91702042       1.22518967      -0.42319474      -0.03840459       1.17844766
Cl       2.09927981       0.67345739       0.66214871      -0.08546880      -0.12251776       0.03755918
6
Properties=species:S:1:pos:R:3:forces:R:3 energy=-26135.52706727384 free_energy=-26135.52706727384 dipole="-1.7335437951619304 0.8905095209257942 -1.0339344454660968" pbc="F F F"
C       -1.00930402       0.93977265       0.01837038      -1.88588594       1.22960414       1.09190960
Cl      -1.64994539       0.44789624      -1.57028854       0.22697507      -0.17808818      -0.34427905
H        0.07466635       0.84673820       0.11382268      -0.24341121      -0.81320144       0.13038769
H       -1.26236153       2.03023245       0.08920323       0.27427157      -0.80953025       0.00198686
H       -1.69916703       0.42524275       0.77418775       1.71836813       0.45338736      -0.83473807
Cl       2.07399921      -0.86020204       1.53627788      -0.09031761       0.11782837      -0.04526702
6
Properties=species:S:1:pos:R:3:forces:R:3 energy=-26135.273239699403 free_energy=-26135.273239699403 dipole="-1.7647390626634005 -0.752770163650029 -0.38201804966858793" pbc="F F F"
C       -1.09056414      -1.09991933       0.35281066       1.91404993      -2.65285234       3.04935362
Cl      -1.71264050      -0.23443690      -0.89204548      -1.83492213       1.61800592      -3.59214170
H       -1.19500932      -2.23928072       0.35007860       0.02841233       1.55643096      -0.47726049
H       -0.05657554      -0.78899910       0.47362216       0.55458515      -0.37801145      -0.05887140
H       -1.54718348      -0.72201287       1.23648332      -0.56501168      -0.05088370       1.05554227
Cl       2.16172158       0.71374370       0.71392773      -0.09711361      -0.09268938       0.02337769
6
Properties=species:S:1:pos:R:3:forces:R:3 energy=-26135.609336494043 free_energy=-26135.609336494043 dipole="1.8260792285293208 1.0140521416304762 0.609640519993221" pbc="F F F"
C        1.41455601       0.40593274      -0.34571998       1.78796203       0.32809908      -2.07341980
Cl       1.44830778       1.14581019       1.20653686      -0.02701356       0.72407730       1.36492408
H        2.32998882      -0.21360390      -0.44590968      -0.46089958       0.36212518      -0.02760095
H        0.57306085      -0.21975995      -0.45434004      -1.34271496      -0.65384753      -0.11660424
H        1.42931178       1.19545851      -1.15040785      -0.11361954      -0.80239876       0.85350276
Cl      -2.05076906      -1.30501610      -1.03109241       0.15628561       0.04194473      -0.00080185
6
Properties=species:S:1:pos:R:3:forces:R:3 energy=-26135.58832548894 free_energy=-26135.58832548894 dipole="-1.215965139912708 0.8208841655893279 -1.5586629272511703" pbc="F F F"
C       -0.09602421       0.93783299      -1.45527742      -0.65273183       1.33200184       1.73241928
Cl      -1.73575802       0.37247579      -1.03827671      -0.19865660      -0.22102662      -0.10700204
H       -0.15500951       2.03447382      -1.32729475       0.19632440      -0.42646969      -0.64090666
H        0.57384616       0.60350964      -0.67536792       0.32073014      -0.60210079       0.11431682
H        0.14398304       0.60009753      -2.42832158       0.35179288      -0.18655561      -0.95520025
Cl       1.75228904      -0.78230083       1.65733931      -0.01745900       0.10415087      -0.14362715
6
Properties=species:S:1:pos:R:3:forces:R:3 energy=-26135.496057200613 free_energy=-26135.496057200613 dipole="1.234276674863136 0.6144726709992065 1.2194719994038232" pbc="F F F"
C        0.33499251       1.12643891       1.05227937      -0.06026131      -0.01549083      -2.96914762
Cl       1.64903060      -0.03286261       1.00514354       0.95198187      -1.28674724       0.24075540
H       -0.45211132       0.73202470       0.29857017       0.87638472       0.77221665       1.26305332
H        0.03033164       1.20173576       2.06366262      -0.56160069       0.38631655       0.84839666
H        0.89306501       1.99981092       0.64736885      -1.23365131       0.04076910       0.52351428
Cl      -1.77593189      -0.46064086      -1.44724808       0.02714671       0.10293577       0.09342796
6
Properties=species:S:1:pos:R:3:forces:R:3 energy=-26135.612413737468 free_energy=-26135.612413737468 dipole="-1.5957361369835976 0.16774836557842826 -0.9042905189465874" pbc="F F F"
C       -1.48197840      -0.04938314       0.12331818       1.80200979      -0.29551446       2.09487589
Cl      -1.22569567       0.30086849      -1.53594884       0.14182789       0.30815990      -1.82885541
H       -2.12757794      -0.91981429       0.21333281      -0.29098137       0.24878111       0.20541518
H       -0.47082701      -0.26756526       0.60088287      -0.98227094       0.02869119      -0.57363637
H       -1.80276455       0.87095531       0.61128949      -0.58561090      -0.27832637       0.07906344
Cl       1.85295721      -0.27513939       1.45363335      -0.08497447      -0.01179138       0.02313727
6
Properties=species:S:1:pos:R:3:forces:R:3 energy=-26135.579228463295 free_energy=-26135.579228463295 dipole="-1.8258374199445992 0.22655697836128927 -0.7410141199057744" pbc="F F F"
C       -1.45906796      -0.25344416       0.21533918       0.12325225      -0.48029136       2.35158542
Cl      -1.50454924       0.59983947      -1.30191252      -0.32564813       0.38246700      -0.48143930
H       -2.37925193      -0.14136306       0.86779033       0.94624540       0.62918020      -0.90155067
H       -1.43026104      -1.31453591       0.05038621       0.22209627      -0.55673501      -0.53259291
H       -0.50723216      -0.01735085       0.76451836      -0.82821419       0.01959143      -0.46109296
Cl       2.12164781      -0.47207773       1.18110588      -0.13773160       0.00578773       0.02509042
6
Properties=species:S:1:pos:R:3:forces:R:3 energy=-26135.58170885248 free_energy=-26135.58170885248 dipole="1.7308241068802626 0.16858112857962934 0.6507036025950098" pbc="F F F"
C        1.53155872      -0.58711220      -0.03394536       0.46750343      -1.45668023      -0.16316463
Cl       1.31732466       0.76355404       1.02351397       0.12187009       1.01469179       1.07690907
H        2.27890544      -0.30786593      -0.77612527      -0.48038214       0.07734670      -0.46708659
H        1.99737858      -1.45123784       0.48908670      -0.52171407       0.51188447       0.08260866
H        0.51901609      -0.83214607      -0.37967632       0.30750386      -0.07191368      -0.52511593
Cl      -1.97259164      -0.49095081      -0.99305512       0.10521883      -0.07532905      -0.00415057
6
Properties=species:S:1:pos:R:3:forces:R:3 energy=-26135.585863672834 free_energy=-26135.585863672834 dipole="-0.26632575753648136 1.7145392709036362 -0.3306681632097638" pbc="F F F"
C        0.02558776       1.48317789       0.62554035       1.87097350      -1.76404162      -0.51139765
Cl      -0.43758376       1.42138389      -1.09070432      -0.08161142       0.60376724      -0.29837053
H        0.98183230       2.04904475       0.77154839      -0.78019717      -0.62744700      -0.32458784
H       -0.73421441       1.91195727       1.20014561      -1.35981237       0.80534976       0.73599549
H        0.10950782       0.38331493       0.84629879       0.35667347       0.92201141       0.33052583
Cl       0.41875958      -2.04743526       0.79863374      -0.00602601       0.06036021       0.06783470
6
Properties=species:S:1:pos:R:3:forces:R:3 energy=-26135.659660590445 free_energy=-26135.659660590445 dipole="-0.6592057589553048 0.48071781967753324 -1.6311402101375154" pbc="F F F"
C        0.20678080       0.83995100      -1.13088492       1.15504530      -0.34924909       1.29016123
Cl      -1.23217020       0.00653247      -1.56248208      -1.36174415      -0.81223093      -0.69902877
H        1.04525097       0.52659044      -1.72219262       0.35764010      -0.46218684      -0.43483147
H        0.07389571       1.87173668      -1.29805354      -0.28316623       1.38237847      -0.02233336
H        0.41549019       0.60216237      -0.07634266       0.10726628       0.20344249      -0.13403865
Cl       1.11847321      -0.37643783       2.03369280       0.02495870       0.03784589       0.00007102
6
Properties=species:S:1:pos:R:3:forces:R:3 energy=-26135.531048928853 free_energy=-26135.531048928853 dipole="-1.6670541201333051 -0.6184048370937558 0.5073638200220006" pbc="F F F"
C       -1.03815021      -1.20520829      -0.07697784       0.93088018       0.63448886      -2.61037321
Cl      -1.66756380       0.08667491       0.86498778      -0.71197258       1.29918084       1.26446439
H       -0.87064966      -2.05662818       0.54964833       0.50785259      -0.46059660       0.22025289
H       -1.81625835      -1.42414888      -0.81616723       0.14230492      -0.31922950       0.04631505
H       -0.13944646      -0.76520554      -0.64857778      -0.79406449      -1.07656269       1.13478971
Cl       2.09967064       0.44240004      -0.81288627      -0.07500063      -0.07728090      -0.05544883
6
Properties=species:S:1:pos:R:3:forces:R:3 energy=-26135.30087483441 free_energy=-26135.30087483441 dipole="1.2293689282467353 1.4673244784462904 0.11442491588786949" pbc="F F F"
C        1.28828839       0.42747083       0.36342258       0.85132991      -3.83578453       0.31494206
Cl       0.77650871       1.87650719      -0.15559773      -1.62459479       5.05481235      -1.82292214
H        1.38799766       0.47905604       1.41092447       0.66902865      -0.19087138       1.41632613
H        0.47880643      -0.28411606       0.19456792       0.27099811      -0.62389337      -0.29508532
H        2.22625791       0.18707629      -0.15289489      -0.22420408      -0.43837141       0.36333282
Cl      -1.32938427      -2.03220322      -0.00883914       0.05744219       0.03410835       0.02340645
6
Properties=species:S:1:pos:R:3:forces:R:3 energy=-26135.520494297747 free_energy=-26135.520494297747 dipole="-1.640100478913236 0.14302457181741016 -0.806376777124315" pbc="F F F"
C       -1.70817653      -0.07153308       0.18935148       3.21298155       1.33961327       0.08401482
Cl      -1.05159538       0.28305398      -1.44661047      -0.61350266       0.05905186      -0.11881638
H       -2.38613958      -0.85122410       0.15880161      -1.45193984      -1.48645019      -0.14463924
H       -0.76955164      -0.30474104       0.71791573      -0.35858676      -0.41067259       0.20205915
H       -2.05040477       0.83342365       0.65011984      -0.65545212       0.51486733      -0.07115472
Cl       1.77838390      -0.24964620       1.33904058      -0.13350016      -0.01640967       0.04853636
6
Properties=species:S:1:pos:R:3:forces:R:3 energy=-26135.591359076298 free_energy=-26135.591359076298 dipole="-1.546082930247916 -0.7332466546634239 -0.5027847263207017" pbc="F F F"
C       -1.13522423      -1.02560667       0.40229571      -0.03076053       2.05481061       1.53362379
Cl      -1.43506939      -0.26548201      -1.16046782      -0.51235064       0.14317684      -0.56942880
H       -1.37639071      -2.06010758       0.33663285       0.33905875      -0.92824448      -0.09470277
H       -0.10430348      -0.68213539       0.64554214      -0.30130287      -0.85097461       0.09969191
H       -1.80754326      -0.57121047       1.19244673       0.55878768      -0.34653468      -1.01483766
Cl       1.91319976       0.70718928       0.96232981      -0.05343239      -0.07223368       0.04565353
6
Properties=species:S:1:pos:R:3:forces:R:3 energy=-26135.368736482058 free_energy=-26135.368736482058 dipole="1.515508060582921 0.7019357502995468 0.7625245104561496" pbc="F F F"
C        1.76522579      -0.20269100       0.43285941      -3.81680542      -1.62851252      -1.26818402
Cl       0.82035233       1.26762319       0.81487376       0.68845841       0.05998838       0.28061758
H        2.24165903      -0.65696450       1.26510690       0.27413462      -0.05401855       1.09784800
H        0.89395771      -0.90639539       0.01721887       1.96263642       1.19205772       0.75302498
H        2.46340845      -0.02542818      -0.33885190       0.74062337       0.50816365      -0.89049000
Cl      -1.57764272      -1.15377214      -0.98836025       0.15095260      -0.07767868       0.02718347
6
Properties=species:S:1:pos:R:3:forces:R:3 energy=-26135.53092271635 free_energy=-26135.53092271635 dipole="1.2064135367712707 1.4414036387382052 0.5724119073185445" pbc="F F F"
C        1.27810861       0.77020402      -0.29992961       0.72882243       0.24774432      -0.87515023
Cl       0.71616600       1.52025841       1.14007952      -1.09122751       1.22890947       1.88022183
H        2.29155764       0.49448161       0.03347879      -0.33965471      -0.65235487      -1.03933998
H        0.54810812      -0.01088590      -0.55432528       0.55572445      -0.26930352      -0.18649354
H        1.32979291       1.56207684      -1.07547471       0.03329845      -0.64887280       0.23278405
Cl      -1.26776479      -1.83938276      -0.99306834       0.11303688       0.09387741      -0.01202213
6
Properties=species:S:1:pos:R:3:forces:R:3 energy=-26135.658930775306 free_energy=-26135.658930775306 dipole="-0.9382149708147688 1.711684195807709 0.1925107109575904" pbc="F F F"
C       -0.51284568       1.21633112      -0.71948016       0.31213531      -1.23274301       1.75086556
Cl      -0.99243882       1.55623187       0.97762681      -0.11511575       0.27735160       0.33609484
H        0.31197692       1.85895815      -0.92325038       0.49707815       0.38980868      -0.50647749
H       -0.23725964       0.15827095      -0.69692340       0.32933412       0.05658622      -0.38877026
H       -1.38830451       1.37452366      -1.27502977      -0.95101599       0.40841351      -1.14460206
Cl       1.20354983      -2.06478589      -0.65153255      -0.07241585       0.10058300      -0.04711058
6
Properties=species:S:1:pos:R:3:forces:R:3 energy=-26135.595805773813 free_energy=-26135.595805773813 dipole="-1.5605103827910325 0.18559553059291586 -0.9858250137569196" pbc="F F F"
C       -1.25805694      -0.03036834       0.04735370       0.95264881      -0.72937859       2.83384333
Cl      -1.37093838       0.31385560      -1.61024796      -0.23831477       0.48327153      -2.49694028
H       -1.89396272      -0.93433890       0.26471943       0.69408314       0.92806610       0.00835710
H       -0.15146849      -0.21101652       0.32372661      -1.63453853       0.16243747      -0.12460012
H       -1.62403715       0.86385741       0.60687901       0.23762769      -0.83232870      -0.21789592
Cl       1.90152642      -0.29556212       1.56021544      -0.01150635      -0.01206780      -0.00276411
6
Properties=species:S:1:pos:R:3:forces:R:3 energy=-26135.75380008133 free_energy=-26135.75380008133 dipole="0.7769682399610861 -1.668359529931197 0.40906332109772964" pbc="F F F"
C        0.20731456      -0.83477293       0.92649463      -0.89427240       0.28863990      -0.63735720
Cl       1.05089804      -1.88928802      -0.20829683       0.34182248      -0.35230304      -0.23506078
H        0.88207225      -0.41600073       1.62398457       0.88903923       0.25731775       0.75444567
H       -0.26540056      -0.01974531       0.38800846      -0.02814009       0.26874093      -0.27809207
H       -0.56312732      -1.39876171       1.41493405      -0.29560228      -0.44244969       0.36105532
Cl      -1.12266188       2.22428496      -0.20305633      -0.01284694      -0.01994585       0.03500906
6
Properties=species:S:1:pos:R:3:forces:R:3 energy=-26135.639199455945 free_energy=-26135.639199455945 dipole="1.9051400506015306 -0.1537546854157601 0.3846082371741093" pbc="F F F"
C        1.33761255       0.60118033      -0.21216845       0.39560742      -0.11232239       0.25771755
Cl       1.73270710      -0.81066348       0.78513429      -0.08177684      -0.74420201       0.35066228
H        1.71224756       1.40528350       0.38284606      -0.21093608       0.94481465       0.36618829
H        2.03032924       0.53348010      -1.03958433      -0.44460543      -0.02206845      -0.72910023
H        0.25684871       0.65939588      -0.40291499       0.20931682      -0.11980586      -0.23682599
Cl      -2.29963193       0.53309729      -0.68311777       0.13239412       0.05358406      -0.00864190
6
Properties=species:S:1:pos:R:3:forces:R:3 energy=-26135.655813130237 free_energy=-26135.655813130237 dipole="-1.227591662242905 0.039347973223934005 -1.5535006638593363" pbc="F F F"
C       -0.29808698      -0.57224524      -1.23332978       1.99844301       0.43215476      -1.07877198
Cl      -1.65823180       0.56071414      -1.28556523      -0.17518163       0.08288628      -0.01486463
H        0.57416132      -0.14092548      -1.82271318      -1.26298657      -0.34973484       0.34766961
H        0.14571948      -0.62126301      -0.23605115      -0.51986560      -0.37114969       0.33397526
H       -0.59080147      -1.51740086      -1.71392382       0.01332005       0.24937311       0.53374565
Cl       1.75555791      -0.30200994       1.81071033      -0.05372926      -0.04352961      -0.12175391
6
Properties=species:S:1:pos:R:3:forces:R:3 energy=-26135.615474152368 free_energy=-26135.615474152368 dipole="1.6509814731053933 0.8818849298926454 -0.7819670960761838" pbc="F F F"
C        1.27131177       0.45340435       0.24091200      -1.89013990      -0.98961760       0.06488393
Cl       1.41540550       0.94763509      -1.42691903       0.71531274       0.09903247      -0.96079198
H        1.38913048       1.30600584       0.84839128       0.30406548       0.94058121       0.83543176
H        0.24238159       0.09095353       0.31329024      -0.12762946       0.10768116       0.41639779
H        1.85809198      -0.38434043       0.56780570       0.88668456      -0.20578626      -0.33811737
Cl      -1.94537014      -1.13004862       1.29611742       0.11170659       0.04810902      -0.01780414
6
Properties=species:S:1:pos:R:3:forces:R:3 energy=-26135.57942383936 free_energy=-26135.57942383936 dipole="-1.5171247980340405 -0.9790446793873953 0.5014143795997699" pbc="F F F"
C       -1.21389709      -0.90723266      -0.50652907       0.86471204       0.86366098      -1.82318866
Cl      -1.27810574      -0.69393970       1.21267642       0.11258788       0.19242144       0.99911877
H       -2.22548584      -0.80038181      -0.88316357      -0.09799567       0.29719422      -0.22786061
H       -0.45016838      -0.22834376      -1.02381138      -1.03515150      -0.44259945       1.06257021
H       -0.89821774      -1.90214209      -0.73634902       0.24089314      -0.85122238       0.07312862
Cl       1.79101353       1.08466145      -0.96589529      -0.08504589      -0.05945482      -0.08376833
6
Properties=species:S:1:pos:R:3:forces:R:3 energy=-26135.675901113016 free_energy=-26135.675901113016 dipole="0.7367676595905548 0.6197625227207477 1.5381790997426437" pbc="F F F"
C        1.07058847      -0.27609208       1.12124835      -0.40643637      -0.18314679      -0.66007536
Cl       0.19279572       1.21816440       1.40238121      -0.38857184       0.63724084       0.21349130
H        0.99090991      -0.88009958       1.99095009      -0.12415479      -0.58397256       0.87692610
H        0.62392912      -0.78056768       0.25948708       0.06586315       0.12279990      -0.15789694
H        2.09240525      -0.01204391       0.96832051       0.79415761       0.07399404      -0.31158803
Cl      -0.66094073      -1.07705763      -1.87380072       0.05914224      -0.06691544       0.03914294
6
Properties=species:S:1:pos:R:3:forces:R:3 energy=-26135.663958133024 free_energy=-26135.663958133024 dipole="-1.4168851599139367 -0.9468331741498088 -1.0171507509580087" pbc="F F F"
C       -0.47529109      -1.24947543      -0.43330488       0.19378949       0.20910666       1.27758319
Cl      -1.74608973      -0.33221546      -1.20955564      -0.53593210       0.51230233      -0.67702171
H       -0.83293595      -1.41455828       0.57590094      -0.14479933      -0.58672405       0.15412929
H       -0.30672593      -2.16322109      -0.97745003       0.18168060      -0.27561299      -0.13779644
H        0.40407377      -0.64363937      -0.23697548       0.35935806       0.25103270      -0.55409738
Cl       1.92804161       0.87559034       1.37452201      -0.05409673      -0.11010465      -0.06279694
6
Properties=species:S:1:pos:R:3:forces:R:3 energy=-26135.63266924769 free_energy=-26135.63266924769 dipole="1.602445136148429 1.2030123603192313 0.08456285903822541" pbc="F F F"
C        1.18772450       0.53936976       0.90712561      -1.58869765       0.21023485      -1.17808138
Cl       1.39380403       1.36628041      -0.71725547       0.38366214      -0.19707879       0.77293236
H        0.59875593      -0.35014978       0.65113755      -0.04150657       0.11829902       0.33395152
H        2.11566304       0.28009178       1.36784437       0.79618188       0.12865613       0.06573689
H        0.57387594       1.22419678       1.50604778       0.31373946      -0.29889458      -0.05931901
Cl      -1.88972392      -1.58184437       0.30967534       0.13662075       0.03878337       0.06477962
6
Properties=species:S:1:pos:R:3:forces:R:3 energy=-26135.60596883253 free_energy=-26135.60596883253 dipole="-1.5846721231489262 0.17691865473465462 -0.9535798094562099" pbc="F F F"
C       -1.37842445      -0.03661463       0.10244508      -2.27133206      -1.70538305       1.88110696
Cl      -1.25160634       0.30961443      -1.56381338       0.11816085       0.40971550      -1.86955952
H       -1.81748172      -1.09344890       0.23808996       0.54440251       1.58124612      -0.23194761
H       -0.42343363      -0.04179261       0.56710710       1.12659212       0.18603288       0.45913123
H       -2.06879635       0.69373559       0.58203815       0.51332604      -0.46708802      -0.27330637
Cl       1.84118167      -0.28465487       1.48965821      -0.03114947      -0.00452344       0.03457530
6
Properties=species:S:1:pos:R:3:forces:R:3 energy=-26135.595659263494 free_energy=-26135.595659263494 dipole="-1.4861197009467306 0.6905987196541606 -0.9775665646691776" pbc="F F F"
C       -0.86559697       0.78408628      -0.00825749       0.43702481      -1.46064806       2.96823797
Cl      -1.54469201       0.38495816      -1.53472203      -1.01434849      -0.28953351      -1.37762032
H        0.13481960       0.29654729       0.04085486      -0.37932027       0.85278417       0.23345738
H       -0.90883545       1.84571863       0.16445560       0.44545328       0.47480428      -0.21691279
H       -1.43062797       0.32527308       0.88498378       0.51872097       0.40881988      -1.59881574
Cl       1.90065721      -0.72078157       1.50651791      -0.00753030       0.01377324      -0.00834649
6
Properties=species:S:1:pos:R:3:forces:R:3 energy=-26135.724817868642 free_energy=-26135.724817868642 dipole="-0.723766923312371 1.5805626059581424 -0.7042078186915199" pbc="F F F"
C       -0.57402137       0.58754462      -1.16900979       0.80164945      -0.56131327      -0.59916437
Cl      -0.61978835       1.95604292      -0.04129002      -0.12673722       0.10631546       0.18085416
H       -0.37265248      -0.36819400      -0.64844918       0.26750483       0.52731495       0.07556609
H       -1.52168975       0.50338309      -1.67932214      -0.40039882       0.22578128      -0.13220959
H        0.22162885       0.81181914      -1.91342992      -0.48644008      -0.29665119       0.54320856
Cl       0.86183816      -2.18203961       0.55796442      -0.05557816      -0.00144723      -0.06825485
6
Properties=species:S:1:pos:R:3:forces:R:3 energy=-26135.603809142533 free_energy=-26135.603809142533 dipole="-1.6828132640604765 -0.5417669454861243 0.6026710799140841" pbc="F F F"
C       -0.85353007      -0.83448210      -0.09935526       0.86633778      -0.89729577      -3.02979801
Cl      -1.90120041      -0.12757263       1.07896915      -0.44190563       0.40835138       0.86094073
H       -0.69639064      -1.92613520       0.05560136       0.06949698       0.86936676       0.40177984
H       -1.34761143      -0.77670346      -1.09922806      -0.12444078      -0.05028681       0.71510194
H        0.09478464      -0.28602521      -0.34022138      -0.35815570      -0.31741068       1.09594757
Cl       2.24581426       0.49529448      -1.00595717      -0.01133266      -0.01272488      -0.04397207
6
Properties=species:S:1:pos:R:3:forces:R:3 energy=-26135.411004525176 free_energy=-26135.411004525176 dipole="-1.703603669856766 0.22709664227663487 -0.6776421871359068" pbc="F F F"
C       -1.43851610      -0.25878776       0.20982005       2.37445404      -2.79367665       2.34662369
Cl      -1.41722884       0.57283546      -1.24097380      -0.56272959       1.28070108      -2.31670802
H       -1.97872814       0.17106253       0.99865567      -0.74922725       1.55620242       0.93172575
H       -1.88406788      -1.26200729       0.20154833       0.21165710      -0.02890804      -0.86998981
H       -0.34888273      -0.36656348       0.53257084      -1.21852071       0.00437621      -0.11042842
Cl       2.02437663      -0.44371083       1.12061313      -0.05563359      -0.01869502       0.01877680
6
Properties=species:S:1:pos:R:3:forces:R:3 energy=-26135.534065572796 free_energy=-26135.534065572796 dipole="-1.2701187649279082 0.9623453277890127 -1.0912818454508457" pbc="F F F"
C       -0.43318634       1.41368720      -0.59764258       0.79403846       1.66393156       2.64828081
Cl      -1.54842209       0.23787623      -1.13415841      -0.81255196      -1.00040862      -0.69431433
H        0.33855553       1.00260249       0.07797916      -0.54588272      -0.43794588      -0.03904435
H        0.12857742       1.90218661      -1.34731405       0.25114011       0.31804930      -1.49524483
H       -0.98070061       2.21549078      -0.03971339       0.32176689      -0.66476600      -0.38546154
Cl       1.70979522      -0.86244715       1.37387084      -0.00851079       0.12113964      -0.03421575
6
Properties=species:S:1:pos:R:3:forces:R:3 energy=-26135.641485434524 free_energy=-26135.641485434524 dipole="-0.21140747251037084 -1.8855276906445628 0.3807110475764694" pbc="F F F"
C       -0.99387782      -1.19764593       0.01351033       0.23599335       1.70310285       0.66978453
Cl       0.57877425      -1.89665487       0.58049735      -0.34856893      -0.02165933      -0.14602976
H       -1.37422487      -1.83558329      -0.79124842       0.07093519       0.28041651       0.17510257
H       -1.67241359      -1.18328204       0.90633717       0.51257076      -0.14779364      -0.91089716
H       -0.77265308      -0.10014223      -0.28648090      -0.38128081      -1.66880186       0.20909461
Cl      -0.13343398       2.39112272      -0.58020142      -0.08964955      -0.14526452       0.00294521
6
Properties=species:S:1:pos:R:3:forces:R:3 energy=-26135.54748704701 free_energy=-26135.54748704701 dipole="-1.5837823958085395 0.16513379676210746 -0.9189972198912502" pbc="F F F"
C       -1.39960556      -0.03837493       0.09841149       1.33172957      -1.01948294       3.24784946
Cl      -1.26705280       0.30000401      -1.52648188      -0.02591190       0.65485923      -3.16429218
H       -1.82494245      -1.01143161       0.28389765      -0.34579264      -0.47434164      -0.19072869
H       -0.37183891      -0.08464805       0.54084910      -0.61565747       0.23511512      -0.12248128
H       -1.99512063       0.68193589       0.62283564      -0.31975513       0.61373544       0.20222075
Cl       1.86045476      -0.27522607       1.45197742      -0.02461243      -0.00988521       0.02743194
6
Properties=species:S:1:pos:R:3:forces:R:3 energy=-26135.691192550465 free_energy=-26135.691192550465 dipole="-0.6995027453592336 -1.489481129310953 1.1196816374980827" pbc="F F F"
C       -0.06670265      -1.45545366       0.18469349      -0.59013612       1.76346069      -1.27585064
Cl      -1.02530039      -0.98683239       1.57670546      -0.41780845      -0.01949628       0.75145711
H        0.73215847      -2.06079517       0.47268320       1.36581510      -0.95463465       0.68309720
H       -0.69777643      -1.99651239      -0.50128131      -0.28629802      -0.15208393      -0.26645128
H        0.28844870      -0.51492888      -0.28906298      -0.05565065      -0.51163614       0.06633054
Cl       1.03872076       1.60997113      -1.63024993      -0.01592186      -0.12560968       0.04141707
6
Properties=species:S:1:pos:R:3:forces:R:3 energy=-26135.649606702944 free_energy=-26135.649606702944 dipole="-1.7874693183405168 -0.3988731640497227 -0.17413243564818878" pbc="F F F"
C       -1.12516760      -0.50022528       0.68682289       2.38420457       0.35393724      -0.04978151
Cl      -1.80495457      -0.17502313      -0.90192413      -0.53329898       0.10700370      -0.57363347
H       -1.27535440       0.38010694       1.32751239       0.22350466      -0.29559999      -0.26691922
H       -1.59564836      -1.35663861       1.10939931      -0.53809570      -0.71712689       0.29260118
H       -0.00486909      -0.70209056       0.51458344      -1.53526987       0.61103452       0.56864034
Cl       2.26795223       0.39223771       0.58529404      -0.00104467      -0.05924858       0.02909267
6
Properties=species:S:1:pos:R:3:forces:R:3 energy=-26135.538516799807 free_energy=-26135.538516799807 dipole="1.9149973181416882 -0.17272399663493163 0.29604640500603246" pbc="F F F"
C        1.36621826       0.69911032      -0.10028488      -2.60346724      -1.33483159      -1.16283186
Cl       1.73826741      -0.88745204       0.56477752       0.70574809      -0.35313946       0.28440445
H        1.09424771       1.36077988       0.67399697       0.04862039       0.86003598       0.90960821
H        2.05390420       1.05628832      -0.80984733       1.53389266       0.40276304      -0.44932006
H        0.43759030       0.50521551      -0.67924985       0.21013268       0.38475431       0.45208493
Cl      -2.30312145       0.56748939      -0.50762258       0.10507342       0.04041772      -0.03394566
6
Properties=species:S:1:pos:R:3:forces:R:3 energy=-26135.581860457834 free_energy=-26135.581860457834 dipole="-0.06414006682916518 -1.8123782558613721 -0.16888901711016563" pbc="F F F"
C       -0.74188476      -1.12276286       0.33203044      -1.09254616       0.05309567       2.86883603
Cl       0.55616695      -1.86288800      -0.53880721       0.60077656      -0.74656174      -0.33579898
H       -1.66253602      -1.15398427      -0.20324431      -0.56153673      -0.13574995      -0.83024711
H       -0.99204378      -1.58481141       1.36638695       0.91309134       0.28106267      -1.67499309
H       -0.49620336      -0.08658072       0.51324033       0.16942656       0.52755963      -0.06548929
Cl      -0.21521442       2.32363508       0.37864327      -0.02921157       0.02059372       0.03769243
6
Properties=species:S:1:pos:R:3:forces:R:3 energy=-26135.464089976733 free_energy=-26135.464089976733 dipole="-1.5365815211524323 0.17274420538342586 -0.970941757598547" pbc="F F F"
C       -1.20724593      -0.04756404       0.04854971       0.65522033      -2.28240429       4.16004756
Cl      -1.36797959       0.30129368      -1.56437192      -0.34291002       0.60283991      -2.94869062
H       -0.23088120      -0.48055770       0.36191123      -0.19015918       0.23990771      -0.76745766
H       -1.25777117       0.80013821       0.69290434      -0.25419440       1.06793581       0.15475302
H       -1.95434104      -0.77084901       0.44670601       0.08083114       0.40500873      -0.66998123
Cl       1.87491240      -0.27234670       1.50522765       0.05121213      -0.03328786       0.07132893
6
Properties=species:S:1:pos:R:3:forces:R:3 energy=-26135.64516723737 free_energy=-26135.64516723737 dipole="-1.611779331595501 0.6094299598519604 -0.7743419207648047" pbc="F F F"
C       -1.30434168       0.73604880       0.26932145       1.90558245       1.19860092      -0.96687070
Cl      -1.34691528       0.27487214      -1.47626123      -0.15511860      -0.29197909       0.41964781
H       -0.31028590       0.48550396       0.69909407      -0.35688639       0.05308460      -0.42186144
H       -1.47646567       1.81069233       0.22159473       0.15115220       0.04962349       0.36032145
H       -2.05887347       0.29162183       0.83431590      -1.44968389      -1.07896280       0.57167315
Cl       1.89819421      -0.59783977       1.33510849      -0.09504578       0.06963288       0.03708973
6
Properties=species:S:1:pos:R:3:forces:R:3 energy=-26135.700157774143 free_energy=-26135.700157774143 dipole="-1.2615974708737931 -0.04806482259950404 -1.250353979708855" pbc="F F F"
C       -1.42955291      -0.50929904      -0.33013215       0.49292687       0.20799702       0.56374783
Cl      -0.73607368       0.39079514      -1.70212076      -0.11819805       0.03822390      -0.41271026
H       -0.67431573      -0.37956542       0.48316841      -0.71646741      -0.10412723      -0.19501927
H       -2.42823051      -0.09771222      -0.12924677       0.39511719      -0.06031330       0.13959182
H       -1.50938165      -1.56001530      -0.59784549       0.02078783      -0.04736497      -0.11545131
Cl       1.35156546      -0.16030764       1.82091040      -0.07416642      -0.03441542       0.01984119
6
Properties=species:S:1:pos:R:3:forces:R:3 energy=-26135.39880650636 free_energy=-26135.39880650636 dipole="-1.733167866084014 0.14736957657113528 -0.4817840768311235" pbc="F F F"
C       -1.85160614      -0.33994189       0.31785661       1.16482282       0.65821831       0.82651768
Cl      -1.01972733       0.53224912      -0.98353973      -0.27035743       0.47244828      -0.13458953
H       -1.86249113      -1.33175228      -0.03925080      -0.55793038      -1.31343144      -0.24072829
H       -1.17717466      -0.35327512       1.20690102      -0.50449514       0.36214300      -0.59201420
H       -2.84162410       0.08305868       0.50421227       0.17823355      -0.08727282      -0.02676860
Cl       1.81431073      -0.37152058       0.82830664      -0.01027342      -0.09210533       0.16758292
6
Properties=species:S:1:pos:R:3:forces:R:3 energy=-26135.560445237934 free_energy=-26135.560445237934 dipole="-1.565762034797275 -0.9713566849201728 -0.500900580278945" pbc="F F F"
C       -1.62150083      -0.21913174       0.23197278      -1.78904570       1.12716460       1.42876894
Cl      -0.96887158      -1.27296920      -0.94196899       0.50763712      -1.03168302      -1.28961007
H       -2.35393267      -0.78514388       0.87468525       0.70341024       0.61041796      -0.58413057
H       -0.81957517       0.19842537       0.81780043       0.52764771       0.03035621       0.35428278
H       -2.12954991       0.65742806      -0.22761177       0.17785493      -0.72729072       0.04198889
Cl       1.66905010       1.34520378       0.82172024      -0.12750430      -0.00896503       0.04870004
6
Properties=species:S:1:pos:R:3:forces:R:3 energy=-26135.516445659516 free_energy=-26135.516445659516 dipole="0.9302606319322799 -0.4108501361043246 -1.4827414325761368" pbc="F F F"
C       -0.10094868      -0.30285724      -1.51768886      -2.70194490       2.20942645       0.33773979
Cl       1.54100763      -0.38985610      -1.01558965       1.30958215       0.08202522       0.15225620
H       -0.30610317       0.46714651      -2.30761362       0.82523072      -0.77555836       0.18167864
H       -0.41857493      -1.27493958      -1.85712905      -0.28672381      -0.28416786       0.02353006
H       -0.74096424       0.13198544      -0.66618804       0.90904577      -1.26297782      -0.62460225
Cl      -1.46513000       0.51168494       1.66717044      -0.05518993       0.03125237      -0.07060244
6
Properties=species:S:1:pos:R:3:forces:R:3 energy=-26135.591172892346 free_energy=-26135.591172892346 dipole="-1.668034570143848 0.36063595125361014 -0.9870052366312856" pbc="F F F"
C       -1.52748906      -0.09063265       0.02205606       1.82714982      -2.12953340       0.61834857
Cl      -1.20813841       0.65162756      -1.54671136      -0.10807485      -0.00289201      -0.40322554
H       -0.55802880      -0.06001176       0.62806352      -1.30080561       0.12725605      -0.57023601
H       -2.37569403       0.36265705       0.44707291      -0.81085453       1.08589831       0.77954497
H       -1.82328340      -1.17274752      -0.06564012       0.54809467       0.90084100      -0.41768193
Cl       1.86093766      -0.59617899       1.51053400      -0.15550951       0.01843005      -0.00675006
6
Properties=species:S:1:pos:R:3:forces:R:3 energy=-26135.656145890167 free_energy=-26135.656145890167 dipole="-0.611573755688093 0.47997861044456497 -1.572798634343736" pbc="F F F"
C        0.24405508       0.90431113      -1.19022171      -0.15823211       0.94487223       2.38323174
Cl      -1.19787279      -0.03336442      -1.46028433      -1.00115120      -0.55383888      -0.29343950
H        0.95275294       0.61718648      -1.90670010       1.12816191      -0.24738418      -1.03681538
H       -0.01714107       1.96968344      -1.25240848       0.15705633      -0.26054494      -0.17643186
H        0.59934495       0.67823998      -0.14406185      -0.17640839       0.06669762      -0.88717710
Cl       1.07153762      -0.36587146       1.95747329       0.05057346       0.05019815       0.01063209
6
Properties=species:S:1:pos:R:3:forces:R:3 energy=-26135.65527492418 free_energy=-26135.65527492418 dipole="1.5811794281442058 0.9003523768537992 0.9857467712020972" pbc="F F F"
C        1.10093077       0.22592510       0.06632048       1.16361591      -1.31063861      -1.59270585
Cl       1.41717291       1.18727611       1.44848893       0.02197833       1.01214417       1.62136025
H        1.62483694      -0.73409894       0.19014029       0.22118031       0.40301306      -0.20984166
H        0.09337987      -0.08303819      -0.08625123      -1.25437960       0.34590515      -0.00448562
H        1.48780233       0.78559004      -0.79910466      -0.25653920      -0.48333362       0.13621152
Cl      -1.88134630      -1.26292596      -1.45119127       0.10414424       0.03290986       0.04946137
6
Properties=species:S:1:pos:R:3:forces:R:3 energy=-26135.644521958533 free_energy=-26135.644521958533 dipole="-1.7547184449976454 0.18594153893299234 -1.031206493553109" pbc="F F F"
C       -1.36453490      -0.03753042       0.08504818       0.35436155       1.47361715      -1.60794247
Cl      -1.44086128       0.33781619      -1.71487460      -0.02998861      -0.18117689       0.83980560
H       -1.87365385      -0.91568743       0.24356105      -1.36174685      -2.11605646       0.18451589
H       -0.35520160      -0.16953184       0.36655206       1.39926657       0.13376949       0.29725437
H       -1.83879840       0.76452816       0.60192522      -0.21868236       0.69881106       0.31536536
Cl       2.01884785      -0.31598165       1.65159538      -0.14321030      -0.00896436      -0.02899875
6
Properties=species:S:1:pos:R:3:forces:R:3 energy=-26135.758936291095 free_energy=-26135.758936291095 dipole="-1.6610402132265745 0.19716594426347692 -1.1340494184314047" pbc="F F F"
C       -1.21241848      -0.03465697      -0.01662389       1.02686679       0.68521196       0.02356573
Cl      -1.46688072       0.33991366      -1.77220209      -0.11365397      -0.16807164       0.45698428
H       -0.20435390      -0.45119764       0.11418838      -0.16198274       0.21619915      -0.06013213
H       -1.26165309       0.91197849       0.54797846      -0.06701204      -0.46718801      -0.32475128
H       -1.93791695      -0.74498350       0.33011343      -0.56989806      -0.24635525      -0.05300121
Cl       1.97445516      -0.32009021       1.74961961      -0.11431998      -0.01979621      -0.04266539
6
Properties=species:S:1:pos:R:3:forces:R:3 energy=-26135.731476516055 free_energy=-26135.731476516055 dipole="-0.8618903743412341 -1.6491529896268844 -0.6141215904955668" pbc="F F F"
C       -0.60967141      -0.50992015      -0.80309725       1.13155083       0.94006731       0.27484962
Cl      -0.80825265      -2.14858280      -0.21412013      -0.14820633      -1.03254196       0.69938484
H       -0.00639526      -0.64142455      -1.69918149      -0.14160054       0.47330958      -0.17003746
H       -1.60173929      -0.14224027      -1.01472157      -0.12985616       0.35607519      -0.16540960
H       -0.04947632       0.15889939      -0.08331609      -0.67231333      -0.67059255      -0.60714107
Cl       1.06195181       2.33911635       0.56575900      -0.03957447      -0.06631757      -0.03164634
6
Properties=species:S:1:pos:R:3:forces:R:3 energy=-26135.493682493052 free_energy=-26135.493682493052 dipole="1.9351447762730287 0.3082081149415511 -0.1269891862736031" pbc="F F F"
C        1.37670561       0.70361306      -0.92744116      -0.89616855      -0.28561500       0.23654039
Cl       1.68802060      -0.17210612       0.63178559       0.04606217       0.42010570      -0.92864612
H        2.00335966       0.36376164      -1.72925071       0.24432957      -1.09510190      -0.28938489
H        0.29172724       0.63287466      -1.17489059       0.69434043      -0.06597558       0.41054720
H        1.71099219       1.71376155      -0.84228622      -0.18120839       0.95293758       0.69161292
Cl      -2.26837995      -0.14335728      -0.21102693       0.09264477       0.07364920      -0.12066950
6
Properties=species:S:1:pos:R:3:forces:R:3 energy=-26135.53710497694 free_energy=-26135.53710497694 dipole="-1.532906030347158 0.004890107023263665 -0.8176951664441046" pbc="F F F"
C       -1.32366955       0.96267861      -0.65423335       1.28997166      -1.53229227       0.56926675
Cl      -1.25274634      -0.84898296      -0.71744580      -0.49247218      -0.02149788      -0.28042995
H       -1.37001583       1.29984464      -1.67944407      -0.09333161       0.34449772      -0.07823277
H       -2.17350440       1.19931983      -0.03691528      -0.29268368       0.38565480       0.03130465
H       -0.35325483       1.12601321      -0.14774815      -0.36757461       0.68492375      -0.22578025
Cl       1.81202827       0.41973298       0.99211483      -0.04390957       0.13871388      -0.01612844
6
Properties=species:S:1:pos:R:3:forces:R:3 energy=-26135.280880876195 free_energy=-26135.280880876195 dipole="-1.667305675633068 0.29970596598973703 0.4141348242478252" pbc="F F F"
C       -1.67147605       1.09272917       0.04429265       0.58596167       0.08039017      -0.35812777
Cl      -1.09883188      -0.46207149       0.57893407      -0.61488846      -1.02525369       0.50942723
H       -2.36110694       0.99773404      -0.78737563      -0.27260477      -0.09150664       0.02075885
H       -2.08912371       1.62265433       0.88299288      -0.31690757       0.29414432       0.21721592
H       -0.76545627       1.56181527      -0.30604422       0.26898978       0.53960687      -0.18822105
Cl       1.81345843      -0.02708031      -0.58795773       0.34944935       0.20261898      -0.20105317
6
Properties=species:S:1:pos:R:3:forces:R:3 energy=-26135.660805117695 free_energy=-26135.660805117695 dipole="-1.7065338939375427 0.243976733292931 -0.6138804005190044" pbc="F F F"
C       -1.45986812      -0.27952206       0.27309197       1.14053781      -0.26375389       1.14089681
Cl      -1.38501717       0.63011210      -1.20576500       0.00745776       0.43179020      -0.93926845
H       -1.60370224      -1.32923263       0.07754465      -0.55528212      -0.31029062      -0.22942927
H       -0.48610196      -0.24362673       0.78677800       0.00007279       0.28770762      -0.27283251
H       -2.20555390       0.17446148       0.90170927      -0.53243397      -0.12072028       0.24322624
Cl       2.00177872      -0.49564314       1.06302119      -0.06035226      -0.02473303       0.05740717
6
Properties=species:S:1:pos:R:3:forces:R:3 energy=-26135.55064615164 free_energy=-26135.55064615164 dipole="-1.4447554059140941 -0.6494826870515057 -0.5288587554227643" pbc="F F F"
C       -0.70483081      -1.00213579       0.12463977       1.71572398      -0.07648780      -0.70801084
Cl      -1.75844727      -0.13977267      -1.00244760      -0.31772416       0.70300793      -0.02018620
H       -0.29671037      -1.79402032      -0.51760351       0.28442448       0.13058126       0.61635936
H        0.09489037      -0.42090784       0.65692409      -0.42386418       0.13781436      -1.25552014
H       -1.27619301      -1.40759182       0.89153760      -1.52142680      -1.00178450       1.21423921
Cl       2.03928112       0.58231577       0.93090590       0.26286667       0.10686874       0.15311861
6
Properties=species:S:1:pos:R:3:forces:R:3 energy=-26135.622011700023 free_energy=-26135.622011700023 dipole="-1.5520646383089154 0.32376404846973933 -0.7826548491755513" pbc="F F F"
C       -1.27077666      -0.13404086       0.16320618       1.52702028      -1.77887894      -1.13871310
Cl      -1.36524854       0.66232976      -1.47544288       0.34460135      -0.38719374       0.37856584
H       -1.89386476       0.45824334       0.72230897      -1.67056561       1.21080237       1.61960031
H       -1.65948270      -1.17510945       0.06645886       0.24916332       0.84899672      -0.02138435
H       -0.24718574      -0.15807162       0.62887103      -0.47189590       0.12199029      -0.92091889
Cl       1.90387297      -0.59203633       1.37983641       0.02167656      -0.01571670       0.08285019
6
Properties=species:S:1:pos:R:3:forces:R:3 energy=-26135.65960796311 free_energy=-26135.65960796311 dipole="1.625913785067255 0.7763230522890048 0.16363569078722912" pbc="F F F"
C        0.96455993      -0.01610370       0.55915720      -2.49278289      -0.98715884       0.07958638
Cl       1.76936925       1.27236844      -0.24084351       0.79109697       1.44573447      -0.56020469
H        0.72205766       0.18646818       1.59293345       0.57970912       0.29283566       0.45754807
H       -0.06781563      -0.17734622       0.13992725       0.99790972      -0.08145593      -0.10154635
H        1.56321306      -0.89487816       0.44142311       0.20757076      -0.63759941       0.11222506
Cl      -2.15922889      -1.24172631      -0.01043195      -0.08350367      -0.03235596       0.01239153
6
Properties=species:S:1:pos:R:3:forces:R:3 energy=-26135.56690853331 free_energy=-26135.56690853331 dipole="1.2099016686809043 0.8963482500670941 0.6398851566199636" pbc="F F F"
C        0.31668440       0.93511147       1.08864382      -2.02601665      -0.32499068      -1.75734765
Cl       1.74561856       0.65372558       0.11526875       1.08079664      -0.01427920      -0.12834590
H       -0.03281574       1.94790846       0.87018417       0.40398799       0.21184913       0.70688369
H       -0.47386659       0.32953881       0.54297589       0.60811079       0.03888931       1.11725136
H        0.45796716       0.66573492       2.12672072       0.06313932       0.12800293       0.11187161
Cl      -1.85153087      -1.05424325      -0.58477230      -0.13001809      -0.03947148      -0.05031312
6
Properties=species:S:1:pos:R:3:forces:R:3 energy=-26135.663284060953 free_energy=-26135.663284060953 dipole="-1.5111657414035393 0.021461694605104803 -0.9465150439235394" pbc="F F F"
C       -1.24655440      -0.76785802      -0.27221115      -1.43419326       0.36296011       0.40694602
Cl      -1.27374705       0.73984699      -1.26902646      -0.18615003      -0.62209778      -0.12175559
H       -2.21328168      -0.81944398       0.28470980       0.76890544       0.26210406      -0.28046417
H       -1.17704180      -1.69027434      -0.83532773       0.23764500       0.16055743      -0.65321349
H       -0.40084314      -0.64138087       0.37170796       0.63031885      -0.11657822       0.61132923
Cl       1.80389827      -0.39008534       1.36634294      -0.01652600      -0.04694560       0.03715800
6
Properties=species:S:1:pos:R:3:forces:R:3 energy=-26135.526811192467 free_energy=-26135.526811192467 dipole="1.4078698577666717 0.6539548594390558 0.35396698646146674" pbc="F F F"
C        0.93452263       0.99205138      -0.47903582       0.41084347      -1.69689763      -2.02870928
Cl       1.53428100       0.19432751       1.00682040      -0.01956641       0.21663863      -0.11294628
H        0.15918388       0.29329395      -0.98275234       1.45442981       0.71768124       0.70604917
H        0.33665401       1.82904109      -0.24124218      -0.29013217       1.20497131       0.61537778
H        1.84149542       1.26449836      -1.12662569      -1.39229702      -0.39193295       0.91536563
Cl      -1.91737220      -0.62675226      -0.77767726      -0.16327768      -0.05046060      -0.09513701
6
Properties=species:S:1:pos:R:3:forces:R:3 energy=-26135.435888754582 free_energy=-26135.435888754582 dipole="1.5086432589470464 0.866757642605267 -0.030031625865819936" pbc="F F F"
C        0.66959407       0.94751837       0.59851476      -1.87035742       1.95878507       2.45236326
Cl       1.77671952       0.58541551      -0.60252725       1.65632490      -0.52811881      -2.34263986
H       -0.39547561       0.71343894       0.39605428       0.51714951       0.36442436      -0.55642296
H        0.86952012       0.31882763       1.41849731       0.34099823      -1.02180262       1.16098949
H        0.87133123       1.97929007       1.01083662      -0.52515408      -0.74334715      -0.74329167
Cl      -2.04184317      -0.99208101       0.31940308      -0.11896113      -0.02994086       0.02900175
6
Properties=species:S:1:pos:R:3:forces:R:3 energy=-26135.543909127548 free_energy=-26135.543909127548 dipole="1.1417176730011414 -1.205346961582177 -0.21728108607174562" pbc="F F F"
C        0.11724514      -1.05136122      -0.38602950      -3.25122714       0.03206849      -1.17168487
Cl       1.76978045      -1.07632125      -0.02897565       2.11467906      -0.22234818       0.42521865
H       -0.09316433      -1.08978043      -1.49195560       0.42024954      -0.40947989       1.03971064
H       -0.47770750      -1.79572693       0.17902632       0.65935364      -0.13319088      -0.49639619
H       -0.36304677      -0.12319260      -0.08461987       0.30711305       0.47639952       0.15169156
Cl      -1.78294946       1.51808907       0.19950682      -0.25016816       0.25655093       0.05146021
6
Properties=species:S:1:pos:R:3:forces:R:3 energy=-26135.7059246123 free_energy=-26135.7059246123 dipole="-1.49841216104579 0.008832884179239206 1.0002188037501405" pbc="F F F"
C       -0.61663374       0.63951833       0.86519688       1.34674000      -0.87173110      -0.58565718
Cl      -1.88018982      -0.59322641       0.84661409      -0.69259035      -0.57565682       0.04106267
H       -1.05669987       1.53733650       0.50868449      -0.43588901       1.02763879       0.06052317
H       -0.25588463       0.69334289       1.90621823       0.10986780       0.18898690      -0.67475963
H        0.15549397       0.35119576       0.08680258      -0.35156453       0.21024193       1.19185195
Cl       2.12201592       0.30313375      -1.21089049       0.02343608       0.02052030      -0.03302098
6
Properties=species:S:1:pos:R:3:forces:R:3 energy=-26135.611849107496 free_energy=-26135.611849107496 dipole="-1.3141706330064804 0.7918422222888434 -0.883539459592612" pbc="F F F"
C       -0.85121732       1.24664831      -0.04741602      -0.74308179      -0.57218513       0.67449785
Cl      -1.30468790       0.13109728      -1.35964667       0.27277326      -0.06986883      -0.23803060
H       -1.59532057       1.02929921       0.73806789       0.17381476       0.77034385      -0.33022853
H        0.09916809       1.02513294       0.40040922       0.74588315      -0.72134268      -0.16811777
H       -0.82108505       2.24122878      -0.45353534      -0.48456733       0.53189532      -0.00361126
Cl       1.65898259      -0.67562532       1.35623602       0.03517796       0.06115746       0.06549031
6
Properties=species:S:1:pos:R:3:forces:R:3 energy=-26135.540774556783 free_energy=-26135.540774556783 dipole="0.4896094356478413 0.7501972421385341 -1.5453643610428685" pbc="F F F"
C       -0.39579317       0.36548163      -1.03184593      -2.18684258      -0.26144462       2.33542791
Cl       1.12244535       0.86875755      -1.55290239       2.44885821       0.93628192      -1.59478130
H       -0.68618931      -0.60626779      -1.41192987       0.05805444      -0.10407890      -0.27724640
H       -0.25046372       0.24661081       0.06221759      -0.81857430      -0.17684592      -0.49406910
H       -1.19392954       1.11444946      -1.20726733       0.53552445      -0.33766318      -0.11027710
Cl      -0.92776273      -1.01405038       1.97521372      -0.03702022      -0.05624931       0.14094599
6
Properties=species:S:1:pos:R:3:forces:R:3 energy=-26135.287638764432 free_energy=-26135.287638764432 dipole="-0.48259186002209986 1.5502735285000795 0.029765488888019907" pbc="F F F"
C       -0.75428306       0.77260827      -0.56721037      -0.24744984      -1.45414514      -4.25346937
Cl      -0.15691898       1.85930050       0.55772385       0.50443569       1.60866750       1.49753845
H       -1.80747862       0.73422061      -0.78024199      -0.90403649       0.27500700       1.06183484
H       -0.41765792       0.95018653      -1.62056935       0.41176600       0.70855277       0.74878116
H       -0.36431948      -0.22454256      -0.47365305       0.05088605      -0.66479762       0.96129917
Cl       0.48611124      -2.16258235      -0.28381062       0.18439860      -0.47328450      -0.01598426
6
Properties=species:S:1:pos:R:3:forces:R:3 energy=-26135.421817964914 free_energy=-26135.421817964914 dipole="-0.8740548307064754 1.4879862470836414 0.3556240884918539" pbc="F F F"
C       -0.49609538       1.10259030      -0.57516223       0.36228536      -0.04360885      -0.63217545
Cl      -0.92101980       1.39374975       1.07652636      -0.10569913       0.54600225       0.72899450
H        0.39556135       1.55130110      -0.96360949       0.49849674       0.85559840       0.38936149
H       -0.32542046       0.09020804      -0.70986528       0.77759685      -2.36617621       0.34122955
H       -1.29145705       1.23004637      -1.24340528      -1.58157889       1.11794762      -0.75283979
Cl       1.12383188      -1.84897514      -0.79871286       0.04889907      -0.10976322      -0.07457030
6
Properties=species:S:1:pos:R:3:forces:R:3 energy=-26135.48082126315 free_energy=-26135.48082126315 dipole="1.5570312844655605 0.8352213643132967 -0.1215286309799465" pbc="F F F"
C        1.31266708      -0.01683826      -0.68698752      -0.69783326      -3.14718697       2.40747279
Cl       1.32799419       1.36695827       0.41251645       0.12819831       0.28199049      -0.34448458
H        0.35211951      -0.63966407      -0.48094044       1.32061609       1.14882770      -0.38744267
H        1.44279873       0.15265293      -1.69898885      -0.26538454       1.41333894      -2.09871515
H        2.19893260      -0.65675098      -0.47440348      -0.51328836       0.36390075       0.45246612
Cl      -1.88630861      -1.32873101      -0.10428022       0.02769176      -0.06087091      -0.02929652
6
Properties=species:S:1:pos:R:3:forces:R:3 energy=-26135.631204674704 free_energy=-26135.631204674704 dipole="1.5712316982890795 0.843611276895459 -0.13837485730065258" pbc="F F F"
C        1.26824823       0.06521779      -0.79586415       1.38742068       1.27621023      -0.77018914
Cl       1.33835199       1.29043406       0.49640789       0.18321769       0.66159299       0.14991887
H        0.30802765      -0.35104967      -0.67041393      -1.25124428      -0.99418084      -0.22770260
H        1.42329181       0.55778441      -1.80584083      -0.21268942      -0.56474052       1.25259639
H        2.09011186      -0.59924368      -0.54534337      -0.12411807      -0.35470363      -0.35850745
Cl      -1.87671397      -1.30137008      -0.14083962       0.01741341      -0.02417822      -0.04611608
6
Properties=species:S:1:pos:R:3:forces:R:3 energy=-26135.70263925045 free_energy=-26135.70263925045 dipole="1.8384644835564925 0.07886902972989923 0.24167544003115" pbc="F F F"
C        1.16390656      -0.56631345      -0.37777428       1.96068473      -1.34615983      -0.58936114
Cl       1.84202260       0.64081859       0.73239332       0.10744214       0.29511867       0.01925229
H        1.63144307      -1.55290275      -0.08318639      -0.67863102       0.99818442      -0.37572867
H        0.11099241      -0.57825173      -0.31559670      -1.46091312      -0.00051581       0.32419697
H        1.43984773      -0.34226568      -1.42714227       0.05535668       0.09314564       0.64801917
Cl      -2.32685823      -0.37861271      -0.55247852       0.01606060      -0.03977309      -0.02637861
6
Properties=species:S:1:pos:R:3:forces:R:3 energy=-26135.535298301125 free_energy=-26135.535298301125 dipole="1.3453274166244897 0.6705592041485853 0.6655394995097457" pbc="F F F"
C        1.65168714       0.00431869      -0.00057696      -1.85191249      -0.19431694      -0.66816821
Cl       0.73681870       1.08666503       1.09436956       0.33872682       0.18745799       0.29632995
H        2.15540679      -0.76130148       0.60161713       0.34252937       0.51314334      -0.39947994
H        0.82347791      -0.45344790      -0.58989006       0.46220249      -0.17556814       0.37308120
H        2.17899468       0.63807739      -0.71567398       0.70372598      -0.25466639       0.49987480
Cl      -1.44309674      -1.07173094      -1.07415776       0.00472782      -0.07604987      -0.10163780
6
Properties=species:S:1:pos:R:3:forces:R:3 energy=-26135.65868252036 free_energy=-26135.65868252036 dipole="-1.6854041902973835 -0.31927065343015953 -0.12852068068458194" pbc="F F F"
C       -0.95036841      -0.81629533       0.43871232       2.50240323      -0.93333603      -0.78184665
Cl      -1.93464817       0.20288942      -0.60115998      -0.35051250       0.19102658      -0.12909889
H        0.15300219      -0.57937256       0.30625036      -1.11358421       0.19684530      -0.08005274
H       -1.13599122      -0.64928290       1.47590356      -0.66207894       0.04827144       0.66766596
H       -1.02530248      -1.87777293       0.13330235      -0.49983432       0.51616960       0.29862341
Cl       2.31375206       0.16201335       0.39805268       0.12360673      -0.01897689       0.02470890
6
Properties=species:S:1:pos:R:3:forces:R:3 energy=-26135.528623963957 free_energy=-26135.528623963957 dipole="1.5912388249743052 0.14607027612413923 0.6477665076773311" pbc="F F F"
C        1.47618638      -0.36515253      -0.23672633      -2.77071592       1.37639900      -0.96283213
Cl       1.24509489       0.56284548       1.28100991      -0.23318178      -0.05753372       0.09419549
H        1.76583705      -1.33319114       0.04845344       0.69587500      -1.23667417       0.08316280
H        0.50253004      -0.38182645      -0.87224978       1.12391173      -0.04656263       1.49873162
H        2.16218816       0.23831864      -0.77401473       1.18087848      -0.00387254      -0.60434116
Cl      -1.87122957      -0.39713717      -1.15537060       0.00323250      -0.03175594      -0.10891663
6
Properties=species:S:1:pos:R:3:forces:R:3 energy=-26135.540679803195 free_energy=-26135.540679803195 dipole="-1.328672663023059 0.29404217701330015 -0.7944336888156827" pbc="F F F"
C       -1.50615216      -0.12310537       0.07197972       1.10745744      -2.71983674       0.76148286
Cl      -0.86866082       0.58105532      -1.36294446       0.31199615       0.68963557      -1.33536673
H       -0.64240516      -0.65415667       0.58228072      -0.83350348       0.53764542      -0.54404313
H       -1.81278960       0.62434656       0.73782536      -0.78954604       1.16229274       0.85923118
H       -2.28997424      -0.85149054      -0.18184607       0.01615042       0.40961955       0.09672224
Cl       1.51389422      -0.51428608       1.30619088       0.18744550      -0.07935652       0.16197358
6
Properties=species:S:1:pos:R:3:forces:R:3 energy=-26135.560219459814 free_energy=-26135.560219459814 dipole="1.1635115279078996 0.9881898135757402 0.6057073489911489" pbc="F F F"
C        0.21529035       1.05501691       0.89528720      -2.19292113      -1.32690351       0.70995584
Cl       1.72906861       0.69407613       0.22270781       2.30246694      -0.19181249      -0.98620010
H        0.33614832       1.15644322       1.97635328      -0.28820691      -0.07404945      -0.06519924
H       -0.21641437       1.92828284       0.47245362      -0.09504029       1.09336757      -0.35640147
H       -0.47284926       0.22233532       0.56160562       0.41724769       0.60549913       0.76170947
Cl      -1.79197163      -1.14556629      -0.61164406      -0.14354630      -0.10610125      -0.06386450
6
Properties=species:S:1:pos:R:3:forces:R:3 energy=-26135.752927302707 free_energy=-26135.752927302707 dipole="1.6013314901172784 0.7683628421853645 0.12699884587440471" pbc="F F F"
C        0.97066580      -0.14285185       0.32034706      -1.04832196      -0.75592528      -0.74434229
Cl       1.70248529       1.39743899      -0.08855019       0.62897959       0.87241855      -0.04042007
H        1.33717380      -0.88704219      -0.40443962      -0.31620334       0.26279989       0.25870023
H        1.24564672      -0.45655034       1.31233934       0.16397447       0.08751670       0.47069167
H       -0.13300444      -0.03211233       0.23257283       0.72474595      -0.39704459       0.05255551
Cl      -2.10102074      -1.30992125      -0.05241694      -0.15317471      -0.06976527       0.00281494
6
Properties=species:S:1:pos:R:3:forces:R:3 energy=-26135.669984737055 free_energy=-26135.669984737055 dipole="-0.8089299709094002 0.17671039386837395 1.5725208798094552" pbc="F F F"
C        0.04576021       0.69566363       1.18491109       1.57022892       0.25838459      -0.56479563
Cl      -1.33875736      -0.33595006       1.44398527      -0.46117800      -0.56289897       0.05952004
H        0.31461758       0.80285250       0.12249515      -0.65444477      -0.07197728      -0.01645531
H       -0.16670149       1.63940739       1.65570926       0.00815519       0.45975848       0.16759413
H        0.97624435       0.26625174       1.58326937      -0.51907496      -0.12971927       0.38574344
Cl       1.29128826       0.02323368      -1.94103274       0.05631361       0.04645244      -0.03160666
6
Properties=species:S:1:pos:R:3:forces:R:3 energy=-26135.61664594491 free_energy=-26135.61664594491 dipole="1.0083368795867678 1.3056854648221763 0.1224870206509354" pbc="F F F"
C        0.76971778       0.52202514       0.75842810       0.61046831      -0.74739708       1.55212459
Cl       0.97682415       1.70852645      -0.47726257      -0.21734793       1.34241483      -1.31977946
H        0.48372450       1.03761051       1.70712407       0.57064257      -0.41922613      -0.58361785
H       -0.00539108      -0.22067924       0.53425490       0.08377060       0.08701029      -0.34211075
H        1.77336831       0.04285999       0.77290379      -0.82548360       0.01124110       0.71425875
Cl      -1.30164208      -1.90984418       0.13458621      -0.22204995      -0.27404302      -0.02087528
6
Properties=species:S:1:pos:R:3:forces:R:3 energy=-26135.68889395168 free_energy=-26135.68889395168 dipole="0.02128639671644737 -1.5738088511015502 -0.7119224455893957" pbc="F F F"
C        0.40486876      -1.40426795       0.24622676       1.25325755       0.42063179      -0.74532934
Cl      -0.34762495      -1.28312002      -1.38830089      -0.16604164      -0.15204952       0.12105985
H        0.49412590      -0.35255409       0.62284658      -0.30663932      -0.80495135       0.06758168
H       -0.16806101      -2.10182361       0.84970125      -0.18688455       0.21399717       0.11235850
H        1.41154723      -1.83699633       0.03680083      -0.64349226       0.31063098       0.38884407
Cl       0.16104126       1.88093010       1.26195807       0.04980021       0.01174094       0.05548524
6
Properties=species:S:1:pos:R:3:forces:R:3 energy=-26135.55322250341 free_energy=-26135.55322250341 dipole="1.5266898010008036 0.5745563778556205 0.1579034485051881" pbc="F F F"
C        1.37710884      -0.40191907       0.31228715      -1.78155999      -1.37822458       0.08005741
Cl       1.26604855       1.28621781      -0.02869034       0.35323166       1.13558895      -0.05798338
H        2.20523232      -0.88199289      -0.12309602       1.23717861      -0.23199620      -1.12368896
H        1.45671461      -0.63798302       1.35047523      -0.09049906       0.44577382       1.05020471
H        0.41876621      -0.85187317      -0.02583876       0.46061332       0.13788082       0.07640893
Cl      -1.84866669      -1.08259937      -0.11128240      -0.17896454      -0.10902281      -0.02499871
6
Properties=species:S:1:pos:R:3:forces:R:3 energy=-26135.4538369104 free_energy=-26135.4538369104 dipole="-0.3195699190180497 0.44699673484478913 1.4340416190202216" pbc="F F F"
C       -1.02802506      -0.16340390       1.17345297      -0.48580271      -1.93785336      -2.39158177
Cl       0.35580841       0.86502122       1.37433404       0.64563695       0.30324871       0.60509387
H       -1.19459510      -0.94816811       1.92351135       0.24165343       0.69236936       0.32184420
H       -1.88024010       0.45464274       0.96823268      -0.64927438       0.37126736       0.51030430
H       -0.89639975      -0.70867685       0.17047850       0.25128772       0.69475198       1.22596586
Cl       0.10542188      -0.77547357      -1.85899029      -0.00350101      -0.12378405      -0.27162646
6
Properties=species:S:1:pos:R:3:forces:R:3 energy=-26135.71060199864 free_energy=-26135.71060199864 dipole="-1.4967679196091512 0.14983670762058043 -0.6218055822663685" pbc="F F F"
C       -1.23621398      -0.47064662       0.15062796       0.28334365      -0.79055363       0.28675268
Cl      -1.37175915       0.68578940      -1.17657037      -0.04018335       0.23457342      -0.27507811
H       -0.22439131      -0.47434639       0.58254841      -0.04220847       0.29583585      -0.26615480
H       -1.96368183      -0.23077605       0.90355636      -0.43391500       0.28973644       0.33660742
H       -1.44475015      -1.47335547      -0.21975394      -0.06602065       0.01379942      -0.22365859
Cl       1.89390448      -0.46438341       1.08952737       0.29898382      -0.04339151       0.14153140
6
Properties=species:S:1:pos:R:3:forces:R:3 energy=-26135.489636769864 free_energy=-26135.489636769864 dipole="-0.5359993769210377 0.46196105566004797 -1.570023359700339" pbc="F F F"
C        0.35107070       0.83888938      -1.31285970       1.03980039      -0.76250520       2.09823832
Cl      -1.14590980      -0.01353078      -1.30474974      -1.26660404      -0.85868703      -0.61114038
H        1.16969193       0.29991160      -1.75383470       0.16871417      -0.74352544      -0.13662285
H        0.26557060       1.72672312      -1.83213501      -0.45914185       2.11859704      -1.00630426
H        0.54544869       0.96691939      -0.23580741       0.45721715       0.18579429      -0.37841261
Cl       0.97064133      -0.35581768       1.85823660       0.06001418       0.06032634       0.03424179
6
Properties=species:S:1:pos:R:3:forces:R:3 energy=-26135.67330053753 free_energy=-26135.67330053753 dipole="-1.7283809867175695 -0.3634117312612432 -0.21070574701593564" pbc="F F F"
C       -0.98952795      -0.44674072       0.58554604      -0.18263859      -1.18298782       0.69369149
Cl      -1.89255809      -0.18565494      -0.88093867      -0.56377590       0.51451654      -1.09953183
H       -1.29990606       0.25163425       1.34116236      -0.64279456       0.07939025       0.46497326
H       -1.20835840      -1.50994795       0.82027452       0.44046694       0.77800042       0.42363065
H        0.05585682      -0.23609064       0.47193257       0.84704110      -0.21343939      -0.52719894
Cl       2.29755801       0.37951001       0.60766844       0.10170101       0.02452001       0.04443536
6
Properties=species:S:1:pos:R:3:forces:R:3 energy=-26135.580531816195 free_energy=-26135.580531816195 dipole="-1.4810412698085944 0.4165933101291814 -0.7362015378730355" pbc="F F F"
C       -1.56829119       0.28758960       0.26455485       0.55107748      -1.19998135       0.34254610
Cl      -0.98180689       0.42118236      -1.41253549      -0.69073926       0.25430208      -0.18362704
H       -2.06889379       1.15009794       0.66014278       0.05576558       0.89889728      -0.26755385
H       -2.26919578      -0.54496297       0.40096489       0.22219656      -0.05548853      -0.49991622
H       -0.63091449       0.05326771       0.77655520      -0.12487684       0.11217321       0.52675992
Cl       1.65445856      -0.53734339       1.27064741      -0.01342352      -0.00990270       0.08179109
6
Properties=species:S:1:pos:R:3:forces:R:3 energy=-26135.6563231093 free_energy=-26135.6563231093 dipole="-1.297644306480636 0.7769961191332474 -1.0673423462919587" pbc="F F F"
C       -0.46270851       1.29967151      -0.60893696      -0.72906360      -1.43107279       0.32174776
Cl      -1.63764330       0.01660478      -1.12357981       0.23291638       0.23265795       0.07428465
H        0.38853884       0.82860520      -0.16074848       0.38513531      -0.56497336       0.70475448
H       -0.14277375       1.76847493      -1.48359746       0.26391182       1.11354350      -1.47044770
H       -0.99686307       1.92862245       0.06759721      -0.17362711       0.56419577       0.40505723
Cl       1.81577303      -0.58563899       1.37473085       0.02072719       0.08564894      -0.03539643
6
Properties=species:S:1:pos:R:3:forces:R:3 energy=-26135.613790687592 free_energy=-26135.613790687592 dipole="-0.18434630936041876 1.5466577188297899 -0.46234875893089916" pbc="F F F"
C       -0.02685267       1.30539911       0.50349528      -2.18142127      -0.84969665       0.94455523
Cl      -0.28466773       1.39165742      -1.21997871      -0.10891712       0.55291035      -1.01358058
H        0.79503417       1.86947101       0.81847793       1.50031037       0.88907168       0.15937588
H       -0.92905932       1.69444198       1.05158343       0.68121149      -0.43488094      -0.64755825
H        0.10210584       0.23207900       0.68444640       0.07455230       0.09947916       0.47998308
Cl       0.29467343      -1.94188333       0.97675090       0.03426423      -0.25688360       0.07722465
6
Properties=species:S:1:pos:R:3:forces:R:3 energy=-26135.44084036198 free_energy=-26135.44084036198 dipole="1.482018022457967 0.6096621046024627 -0.39888005922877634" pbc="F F F"
C        1.22170509      -0.24436746      -0.85760214       0.67090835      -0.78589682      -0.75354437
Cl       1.29875818       1.16718042       0.12875791       0.07023571       0.84808567       0.91115559
H        0.37242363      -0.84630094      -0.68710911      -1.11639702      -0.72326659       1.43727885
H        0.95471034       0.07547769      -1.83606699       0.70952812       0.42230051      -1.27701769
H        2.14226724      -0.83707639      -0.76996057      -0.16586083       0.35077046      -0.29644272
Cl      -1.81134087      -1.03866531       0.25544918      -0.16841433      -0.11199323      -0.02142966
6
Properties=species:S:1:pos:R:3:forces:R:3 energy=-26135.644176830567 free_energy=-26135.644176830567 dipole="1.6355249571581083 0.3164184914547765 -0.05183212723834266" pbc="F F F"
C        1.13743274       0.42282766       0.84218656      -0.50401302      -1.43195123      -0.98487934
Cl       1.64831425       0.14912513      -0.87615627      -0.14789601       0.40399349       0.19820642
H        1.64246413      -0.38021930       1.33792677       0.47269653      -0.12258021       0.78274008
H        1.40822077       1.39457274       1.15876571       0.47872625       0.97062424       0.26027708
H        0.06409160       0.22956523       0.92593813      -0.15013170       0.20419477      -0.33094426
Cl      -2.12226064      -0.32775568       0.49349013      -0.14938205      -0.02428106       0.07460003
6
Properties=species:S:1:pos:R:3:forces:R:3 energy=-26135.44996400534 free_energy=-26135.44996400534 dipole="-0.9638829236132295 -0.05850715005119258 -1.4573865838787998" pbc="F F F"
C       -0.34225940      -0.75690274      -1.02162560       2.13224976      -2.40166577       2.11725458
Cl      -1.21596410       0.57839192      -1.43546834      -1.87423334       3.06041960      -1.20535494
H        0.42061288      -0.53719874      -0.25403789      -0.11140736       0.20729904      -0.27246372
H       -0.97521938      -1.46363369      -0.53575134      -0.68600837      -0.65089493       0.39126362
H        0.10849749      -1.26761464      -1.83523512       0.44354124      -0.20068443      -1.14299499
Cl       1.34461164      -0.22900536       1.85625169       0.09585806      -0.01447351       0.11229544
6
Properties=species:S:1:pos:R:3:forces:R:3 energy=-26135.573675908086 free_energy=-26135.573675908086 dipole="-1.5416356657024899 -0.5907439568818945 -0.38520350332650044" pbc="F F F"
C       -0.78062077      -0.89120310       0.28229901       0.85929697      -1.65915890      -1.29809675
Cl      -1.80423782      -0.14002997      -0.89362491      -1.47591462       0.82867593      -1.16130843
H       -0.47084140      -1.86177735      -0.22743470       0.09452147       1.23913472       1.12636775
H        0.01039261      -0.18136305       0.44533254       0.87575376      -0.23070024       0.26866819
H       -1.33580851      -1.07582880       1.16294683      -0.60999503      -0.30713724       0.99045654
Cl       2.11979956       0.53066922       0.75871419       0.25633745       0.12918574       0.07391270
6
Properties=species:S:1:pos:R:3:forces:R:3 energy=-26135.71817815932 free_energy=-26135.71817815932 dipole="-1.2872838506810798 0.638442821689661 -1.030180020471386" pbc="F F F"
C       -0.37948948       0.93247923      -0.45779318      -0.23770270      -1.32400256      -0.48290689
Cl      -1.78069732       0.13236812      -1.25328556      -0.15040703      -0.03300520      -0.13138939
H        0.06061436       0.23498110       0.25225177       0.15139428       0.17840109       0.12887280
H        0.30409362       1.20487393      -1.22279929       0.80569761      -0.11225943      -0.74476577
H       -0.74000987       1.82796450      -0.06333171      -0.67502216       1.33213544       1.13388845
Cl       1.91994563      -0.54122483       1.43779061       0.10604000      -0.04126933       0.09630080
6
Properties=species:S:1:pos:R:3:forces:R:3 energy=-26135.721839683098 free_energy=-26135.721839683098 dipole="-1.459213776164915 0.17961913970452817 -0.9457752965173479" pbc="F F F"
C       -1.09822053      -0.03322391       0.07285463      -0.29799230      -0.66059784       1.74881377
Cl      -1.39772230       0.32429512      -1.62508318      -0.07910870       0.11512400      -0.27501138
H       -1.62581494      -0.96588962       0.38052135       0.13237391       0.67201891      -0.46803765
H       -0.04681439      -0.18683200       0.32455618       0.26780113       0.05200059      -0.51381991
H       -1.41735602       0.78511614       0.74126411      -0.16810873      -0.15048869      -0.61428609
Cl       1.85767808      -0.30258570       1.55927305       0.14503469      -0.02805696       0.12234126
6
Properties=species:S:1:pos:R:3:forces:R:3 energy=-26135.552502084825 free_energy=-26135.552502084825 dipole="-1.3295335988897734 0.7219364533026134 -1.082553192777594" pbc="F F F"
C       -0.38742572       0.88095492      -0.45057605       1.80482392       0.70156425       1.30770728
Cl      -1.84600161       0.36765561      -1.36526707       0.52848190      -0.27975372       0.31052528
H        0.29300188       0.15767924       0.13938255      -1.73207929      -0.02470438      -0.75466748
H        0.36991523       1.29775892      -1.14606027      -0.86284082       0.15624376       0.06191227
H       -0.71707490       1.65500514       0.29393954       0.27556041      -0.61511274      -0.88328603
Cl       1.97880729      -0.75458019       1.53819539      -0.01394613       0.06176282      -0.04219133
6
Properties=species:S:1:pos:R:3:forces:R:3 energy=-26135.635121036485 free_energy=-26135.635121036485 dipole="-0.9577102037463049 -0.06252972130957182 -1.5210582786047808" pbc="F F F"
C       -0.21170895      -0.62436567      -0.89075473      -0.69616162      -2.41523188       1.53107548
Cl      -1.30530957       0.47757139      -1.61874874      -1.07662565       1.11239089      -1.09154690
H        0.22404312      -1.32615612      -1.60296764       0.02895823       0.27058809      -0.16066233
H        0.49974465      -0.10237679      -0.30715308       0.99758115       0.51622956       0.44319361
H       -0.79468293      -1.21970930      -0.12795342       0.65744822       0.51905452      -0.83346928
Cl       1.37905565      -0.19072557       1.97850146       0.08879966      -0.00303118       0.11140942
6
Properties=species:S:1:pos:R:3:forces:R:3 energy=-26135.707595354204 free_energy=-26135.707595354204 dipole="-1.1603565903121886 -0.019989578639746094 -1.3407053330957817" pbc="F F F"
C       -0.96276052      -0.36347008      -0.29674556      -1.50679519      -0.34893229       0.88482602
Cl      -0.99864837       0.30197685      -1.90915477       0.05148404       0.47619020      -1.26334345
H       -0.06702167      -0.08193614       0.21432394       0.72569920       0.17642770       0.34517420
H       -1.83940319       0.10072580       0.24315500       0.86385098      -0.93121740      -0.41099776
H       -1.00180127      -1.46540589      -0.39297555      -0.24392987       0.62732812       0.30609851
Cl       1.40754001      -0.13769396       2.00786257       0.10969084       0.00020367       0.13824248
6
Properties=species:S:1:pos:R:3:forces:R:3 energy=-26135.749078646473 free_energy=-26135.749078646473 dipole="-1.7843524957917514 0.15913318437443782 -0.7172045528024603" pbc="F F F"
C       -1.04978917      -0.29260308       0.11375576      -0.66327292       0.09253784       0.64264905
Cl      -1.86766301       0.54922344      -1.27589045       0.38747313      -0.05486780       0.58141217
H       -1.51651393      -0.01999766       1.07380091      -0.22164026       0.14981665      -0.55379484
H       -1.22318887      -1.34345685      -0.05279166       0.15376103      -0.34850879      -0.08490324
H        0.00393085      -0.07461016       0.24136328       0.42174490       0.16093627      -0.59043897
Cl       2.30113765      -0.40919453       1.20145344      -0.07806587       0.00008584       0.00507583
6
Properties=species:S:1:pos:R:3:forces:R:3 energy=-26135.700658850892 free_energy=-26135.700658850892 dipole="1.2959193988575506 1.0454770133026607 0.7547693528173625" pbc="F F F"
C        0.35844641       0.80576094       1.23738199       0.11029297       0.92170772      -0.53514431
Cl       1.74122991       0.93333210       0.06214553      -0.34867809       0.15938899       0.35655911
H        0.73707175       0.21799759       2.06034495      -0.06432765       0.07495943       0.37235112
H        0.01695964       1.83522444       1.50935474       0.55526534      -0.83922498      -0.03758595
H       -0.44302306       0.29051480       0.72378619      -0.23677216      -0.36540202      -0.23536739
Cl      -1.87152036      -1.27297897      -0.60347215      -0.01578041       0.04857085       0.07918742
6
Properties=species:S:1:pos:R:3:forces:R:3 energy=-26135.59122770117 free_energy=-26135.59122770117 dipole="-1.1959813113125317 0.8379982280758571 -0.8838709393723725" pbc="F F F"
C       -0.62754483       1.38988952      -0.21962908      -0.84801467      -1.27541913      -0.05713083
Cl      -1.36557550       0.07579275      -1.23825193      -0.12533919       0.82666372       0.18087650
H       -0.27701467       2.18652356      -0.80443267       0.43836392       0.94610715      -1.20001491
H       -1.30608265       1.76382858       0.51951605      -0.80600471      -0.02887297       0.26305894
H        0.15249831       0.87210978       0.26560949       1.26659470      -0.48552457       0.74369460
Cl       1.61887550      -0.68383237       1.31321459       0.07439995       0.01704580       0.06951571
6
Properties=species:S:1:pos:R:3:forces:R:3 energy=-26135.69559998337 free_energy=-26135.69559998337 dipole="-1.4228944486911506 0.1260816664078657 -0.9662362191194925" pbc="F F F"
C       -0.95568092      -0.53119366      -0.25170191       0.97102368      -1.50087037       0.90835803
Cl      -1.49316162       0.69238276      -1.37270892      -0.23522302       0.81294126      -0.43777285
H       -1.52443928      -0.50019234       0.69225025      -0.18051273      -0.07727584      -0.61968045
H       -1.03528103      -1.50002044      -0.78547616      -0.21296442       0.41650477       0.55917741
H        0.10404378      -0.43163360       0.08734590      -0.50657562       0.38601294      -0.52621281
Cl       1.88678660      -0.44325813       1.45815656       0.16425210      -0.03731276       0.11613067
6
Properties=species:S:1:pos:R:3:forces:R:3 energy=-26135.519251643545 free_energy=-26135.519251643545 dipole="0.9270698790937808 -1.2645684548292133 0.19215538274848146" pbc="F F F"
C       -0.01981208      -1.39813346      -0.01663630      -1.64322268       1.08148561      -1.44428023
Cl       1.55647371      -0.86771011       0.34155973       2.09244615       0.47006176       0.38785570
H       -0.04293623      -1.99319990      -0.90212595       0.32980252      -1.00386590      -0.48675539
H       -0.41871439      -1.88921487       0.82666498      -0.65056224      -0.64101201       0.88928600
H       -0.61530601      -0.51026471      -0.31715949       0.09122547      -0.21557025       0.73144808
Cl      -1.51913844       1.46632230      -0.32475917      -0.21968922       0.30890080      -0.07755417
6
Properties=species:S:1:pos:R:3:forces:R:3 energy=-26135.654871507406 free_energy=-26135.654871507406 dipole="-1.2736716977620384 -0.05576254546056548 -1.2580355616066399" pbc="F F F"
C       -1.35716918      -0.47766385      -0.28659958       2.36981405       0.22723902       0.33263873
Cl      -0.81134430       0.36827708      -1.77690813      -0.38269063       0.03322638       0.20033106
H       -0.51501983      -0.41817817       0.45412719      -0.62265011       0.04960366      -0.49270173
H       -2.25284370      -0.10051563       0.10303194      -1.27225572       1.13610581       0.36557389
H       -1.53719157      -1.47909946      -0.55403762      -0.05133284      -1.41013216      -0.43976312
Cl       1.39358561      -0.14963121       1.87392367      -0.04088476      -0.03604272       0.03392117
6
Properties=species:S:1:pos:R:3:forces:R:3 energy=-26135.703286996133 free_energy=-26135.703286996133 dipole="0.3185120837197656 -1.1666801754267817 1.2276388182824929" pbc="F F F"
C       -0.23552416      -0.25821188       1.21941443      -1.48737860      -1.05847860      -1.16960047
Cl       0.76064357      -1.68334968       0.88118077       0.50356623      -0.54983654      -0.23934355
H        0.10548763       0.09812071       2.13864511       0.39737165       0.89563628       1.48354238
H       -0.18240857       0.44868570       0.39063826       0.11394217       0.12267011      -0.04704190
H       -1.27063824      -0.64965118       1.29407654       0.50765841       0.46070707       0.07307980
Cl      -0.64252734       1.77376013      -1.40305196      -0.03515985       0.12930168      -0.10063626
6
Properties=species:S:1:pos:R:3:forces:R:3 energy=-26135.66642870989 free_energy=-26135.66642870989 dipole="1.7398110128492312 0.2654082854349448 0.5398003123591393" pbc="F F F"
C        1.00473540       1.03961862       0.27557598       0.44118187       0.07225342       1.52965920
Cl       1.83398632      -0.54406931       0.61677818      -0.36134497       0.63385904      -0.01291712
H        0.04388579       0.87507917      -0.14990305      -1.10983148      -0.62763086      -0.14464483
H        0.91679072       1.63915280       1.22350336       0.23945267      -0.72907080      -0.90420088
H        1.59459463       1.53520225      -0.45593032       0.77037671       0.56849732      -0.45200929
Cl      -2.24706361       0.07668740      -0.72771060       0.02016520       0.08209187      -0.01588708
6
Properties=species:S:1:pos:R:3:forces:R:3 energy=-26135.48706663965 free_energy=-26135.48706663965 dipole="1.330641494881354 -0.489400934535107 -0.6222447183870232" pbc="F F F"
C        1.12316270       0.40260968      -0.18105099      -1.27132863       1.35016019      -1.75457559
Cl       1.22189090      -1.19062614      -0.85920241       0.56973522      -1.40650290      -0.64460363
H        0.07854752       0.69636272      -0.36747787       0.38629708       0.05482924       0.48537416
H        1.24110576       0.32997139       0.86595789       0.48924946       0.30792962       1.01504955
H        1.72861169       1.12089692      -0.75988834       0.38501047      -0.46375651       0.64074988
Cl      -1.68911117       0.99316059       0.92797824      -0.55896360       0.15734035       0.25800563
6
Properties=species:S:1:pos:R:3:forces:R:3 energy=-26135.556743975656 free_energy=-26135.556743975656 dipole="1.2173763772150545 0.1430383992179222 0.709731844558166" pbc="F F F"
C        0.94993796      -0.74084021       0.46572601      -0.28562537      -0.25022352      -0.26966924
Cl       1.35394333       0.95289536       0.87035738       0.28301504       0.45712622      -0.11665973
H        1.02329786      -1.23453529       1.44781452      -0.16867290      -0.27935410      -0.59039432
H       -0.09910117      -0.72203724      -0.00904173       1.34701637      -0.24841231       0.72293203
H        1.70191659      -1.13390488      -0.26094850      -0.49920537       0.33022891       0.64866886
Cl      -1.75046877      -0.61401150      -1.06164319      -0.67652777      -0.00936520      -0.39487761
6
Properties=species:S:1:pos:R:3:forces:R:3 energy=-26135.431676433713 free_energy=-26135.431676433713 dipole="-0.6515446075312653 -0.505346849442038 -1.333391811410792" pbc="F F F"
C       -0.47978409      -1.03145693      -0.50267168       1.35296988      -2.59643611       1.93937962
Cl      -0.73450980       0.06771339      -1.76537942      -0.76062369       1.32985694      -1.57093620
H        0.50098051      -1.48622522      -0.66888862       0.17072971       0.11472160      -0.10706448
H       -0.30382472      -0.53922653       0.48783566      -0.74550815      -0.16984235      -0.64604985
H       -1.13204655      -1.94085646      -0.50703568      -0.23317453       1.14819120      -0.00147854
Cl       0.92365103       0.39453958       1.95525764       0.21560678       0.17350872       0.38614944
6
Properties=species:S:1:pos:R:3:forces:R:3 energy=-26135.594287086795 free_energy=-26135.594287086795 dipole="1.123573457534567 0.8763202547493927 0.5803085870521705" pbc="F F F"
C        0.31675137       0.54829677       1.05064246      -0.23058555      -0.65615134      -0.46571599
Cl       1.66463722       1.00363443       0.01962890       0.52106739       0.38145014      -0.42812390
H        0.72665407       0.08816715       1.91372584       0.33858399      -0.79038378       0.75742939
H       -0.22436397       1.38530451       1.37366279      -0.55933278       1.68629772       0.31975283
H       -0.39714924      -0.07063358       0.48989056       0.41233412      -0.26269465       0.10070487
Cl      -1.77494703      -1.22929461      -0.48300729      -0.48206718      -0.35851809      -0.28404719
6
Properties=species:S:1:pos:R:3:forces:R:3 energy=-26135.54724770959 free_energy=-26135.54724770959 dipole="1.4546862814750638 0.363692152319488 0.10602657245438851" pbc="F F F"
C        0.99022562      -0.27692619      -0.47989136       0.34465327      -0.10554211       2.02117927
Cl       1.64297686       0.97853060       0.67452308      -0.00528178       0.08706972      -0.17294029
H        1.47052758      -1.17987099      -0.12813156      -0.30395901      -0.52997440       0.30263653
H       -0.11811899      -0.30264175      -0.36289010       0.69195569       0.01114948      -0.58725607
H        1.46501886      -0.10343572      -1.40125249      -0.03305455       0.70474425      -1.55182749
Cl      -2.05859228      -0.83960827      -0.45812287      -0.69431361      -0.16744694      -0.01179195
6
Properties=species:S:1:pos:R:3:forces:R:3 energy=-26135.492272368443 free_energy=-26135.492272368443 dipole="-1.3093589839131639 0.15706897784912854 -0.8649704629955739" pbc="F F F"
C       -1.00603033      -0.02954560       0.09567817      -0.42321568       1.78021879       1.28130122
Cl      -1.27386018       0.30313905      -1.55574985      -0.73829699       0.43039841      -2.33286037
H       -1.30089047      -0.99733828       0.32063413      -0.55491182      -1.98149931       0.38897096
H        0.03902991       0.07348771       0.26126414       0.71642383       0.07327802       0.51597595
H       -1.58074720       0.67476712       0.72397370       0.30878031      -0.20655774      -0.28164460
Cl       1.69554647      -0.28604601       1.48620092       0.69122033      -0.09583817       0.42825684
6
Properties=species:S:1:pos:R:3:forces:R:3 energy=-26135.718909857325 free_energy=-26135.718909857325 dipole="-1.1950301957114793 0.19598446935583064 -1.3147369965579851" pbc="F F F"
C       -0.29654338      -0.01682079      -0.55396405      -1.04362123      -0.01793559       2.50939570
Cl      -1.65110391       0.32391581      -1.62576067      -0.47853705      -0.12954525      -0.59081333
H        0.22371149      -0.91712407      -0.73159718       0.37110738      -1.04902117      -0.76478001
H        0.36488359       0.79535345      -0.56147664       0.99558656       1.11296561      -0.21394507
H       -0.64745707      -0.09392943       0.50550757       0.08782329       0.10543813      -0.98313868
Cl       1.75325103      -0.31208337       1.83584611       0.06764105      -0.02190173       0.04328139
6
Properties=species:S:1:pos:R:3:forces:R:3 energy=-26135.513233712165 free_energy=-26135.513233712165 dipole="-1.119810781079612 0.6018110738117288 -0.8160918489270447" pbc="F F F"
C       -0.52600110       0.75246500      -0.03418677      -0.37311683      -0.49988886       1.25154757
Cl      -1.49438664       0.32499316      -1.43738892      -0.24687827      -0.21185058      -0.65176799
H       -1.19274353       1.14786045       0.70699634      -0.74971463      -0.11204153       0.57530671
H        0.07872307      -0.06464357       0.42613220      -0.52129920       0.34809960      -0.80467560
H        0.08945718       1.58340507      -0.22400240       1.16420631       0.85030154      -0.90117986
Cl       1.70173668      -0.65576359       1.42312145       0.72680262      -0.37462018       0.53076916
6
Properties=species:S:1:pos:R:3:forces:R:3 energy=-26135.4833031085 free_energy=-26135.4833031085 dipole="-0.43240270102002737 1.1967400466553928 -0.8487413631378273" pbc="F F F"
C        0.11277642       0.44906687      -1.19452938      -1.19774496      -1.14572812      -0.33175788
Cl      -0.85364215       1.67882753      -0.37265490      -0.41382775       0.87641038       0.91088995
H        1.08267608       0.92066021      -1.40350707      -0.22077414      -0.63071793      -0.01772421
H        0.10001083      -0.51724573      -0.55170049       0.61425618       1.59168001      -0.87894216
H       -0.53927861       0.31961373      -2.08692409       1.12721610      -0.29313533       0.03464872
Cl       0.79713684      -1.85153711       0.89231530       0.09087456      -0.39850902       0.28288557
6
Properties=species:S:1:pos:R:3:forces:R:3 energy=-26135.5256929463 free_energy=-26135.5256929463 dipole="-1.3421961089079393 0.20805443001740442 -0.5126029141238592" pbc="F F F"
C       -1.35930240      -0.30112482       0.32106649      -0.32947487      -0.27991116       0.15220666
Cl      -1.00907441       0.62196695      -1.12795467      -0.12525680       0.38088877      -0.68826389
H       -1.33331954      -1.35686420       0.07922377       0.08602261      -0.14965891      -0.04647999
H       -0.57204698      -0.08031709       1.02127317       0.23925742      -0.04658893       0.27720948
H       -2.33369705      -0.03119468       0.68972496      -0.56128597       0.20438117       0.07844689
Cl       1.59016206      -0.47818887       0.96826854       0.69073761      -0.10911095       0.22688085
6
Properties=species:S:1:pos:R:3:forces:R:3 energy=-26135.621447337046 free_energy=-26135.621447337046 dipole="1.109340757551077 0.8614938163481184 0.5604872237932956" pbc="F F F"
C        0.30879346       0.54821299       1.06597992      -0.91936445       1.04821455       0.30991541
Cl       1.67420959       1.00270405       0.00733709       0.21824223      -0.06012420      -0.02885932
H        0.70277216       0.07299290       1.98283077      -0.21808256       0.44965546      -0.39627915
H       -0.27674473       1.50170490       1.23535395       0.83749019      -0.99855371       0.30660689
H       -0.39618104      -0.10585442       0.52062998       0.54999071      -0.08842149       0.07802369
Cl      -1.77968219      -1.23021266      -0.47481834      -0.46827612      -0.35077060      -0.26940752
6
Properties=species:S:1:pos:R:3:forces:R:3 energy=-26135.615247729227 free_energy=-26135.615247729227 dipole="1.3588495729045078 0.7638359830373431 -0.47396836967754913" pbc="F F F"
C        0.50987874       0.60482699      -1.06728935      -0.82691504       1.55819439       0.03621028
Cl       1.74110913       0.67906483       0.20770271       0.44737969       0.21187779       0.13196310
H        0.98354112       0.67942417      -2.04439605       0.16604327       0.09135251       0.00273083
H        0.00628605      -0.32915755      -0.92335515      -0.55268406      -0.35925250      -0.02093629
H       -0.22842015       1.46291510      -0.90390503       1.04062580      -1.33582901      -0.23835717
Cl      -1.93551398      -0.93554619       0.26399945      -0.27444965      -0.16634317       0.08838925
6
Properties=species:S:1:pos:R:3:forces:R:3 energy=-26135.55191851913 free_energy=-26135.55191851913 dipole="-1.4775336901072953 -0.303310723793984 -0.10837823756566586" pbc="F F F"
C       -0.88070178      -0.72334505       0.58308975      -0.30474195      -0.95497735      -0.25996162
Cl      -1.69629835       0.12384504      -0.74894888      -0.22055651      -0.28132018      -0.42568193
H        0.18538775      -0.79016999       0.40340415       0.14162659       0.07091733      -0.30540906
H       -1.02924459      -0.08083138       1.39653995      -0.03160503       0.82039573       1.41581501
H       -1.31845496      -1.70059484       0.82012698      -0.25301773       0.16365405      -0.45864945
Cl       2.05617760       0.19435712       0.47688900       0.66829463       0.18133041       0.03388703
6
Properties=species:S:1:pos:R:3:forces:R:3 energy=-26135.597415347354 free_energy=-26135.597415347354 dipole="1.1205403053112726 1.0368446592398333 -0.08978416908156842" pbc="F F F"
C        0.19833081       1.09469498      -0.51067247       0.15023622      -0.52558949       1.26468233
Cl       1.80009845       0.79711156       0.34381891      -0.64830607       0.52847129      -0.29009604
H        0.41023903       1.18966845      -1.54496900       0.28596157       0.63616085      -0.93766238
H       -0.36208305       0.17120711      -0.38828258      -0.11807537      -0.13994024       0.16915543
H       -0.39952547       1.89848854      -0.04755261       0.76139478      -0.08852876      -0.23853452
Cl      -1.85730497      -1.26068901      -0.11447230      -0.43121113      -0.41057364       0.03245517
6
Properties=species:S:1:pos:R:3:forces:R:3 energy=-26135.423495966843 free_energy=-26135.423495966843 dipole="-1.3946262741289022 0.26176588778488774 -0.6390360812020698" pbc="F F F"
C       -1.37806657      -0.19641523       0.28793764      -3.12864785       2.32300358      -0.67981174
Cl      -0.99626204       0.59574204      -1.30116128      -0.04217110      -0.69793827       0.23757495
H       -2.45650668       0.17545700       0.48252837       1.57521237      -0.76502344      -0.09160785
H       -1.34411965      -1.25196402       0.31606003       0.35575797      -1.05600518      -0.53714193
H       -0.70613402       0.23083059       0.97347043       0.92235292       0.27499042       0.89673743
Cl       1.59131908      -0.50514725       1.15321617       0.31749569      -0.07902711       0.17424913
6
Properties=species:S:1:pos:R:3:forces:R:3 energy=-26135.43760259116 free_energy=-26135.43760259116 dipole="1.1834459472319252 0.8083874695458516 0.553657517719203" pbc="F F F"
C        0.23026858       1.01544000       0.69936597      -3.51305102       0.18952180      -1.17132335
Cl       1.85099006       0.51734579       0.37888676       1.13399396      -0.39148123       0.41572811
H        0.10369807       2.04614962       0.31052435       0.16856494      -0.38095536       0.50436614
H       -0.49850066       0.36856304       0.06188486       1.26370316       0.79649735       0.84642795
H       -0.22897770       0.91966229       1.71550548       1.30727708       0.05158520      -0.40306289
Cl      -1.91127173      -0.95620333      -0.67521124      -0.36048812      -0.26516775      -0.19213596
6
Properties=species:S:1:pos:R:3:forces:R:3 energy=-26135.45724018158 free_energy=-26135.45724018158 dipole="-1.2305186287087733 0.37487436529261986 -0.6433135036758794" pbc="F F F"
C       -1.26363124       0.19656111       0.31486267       1.29014760       1.57831265       0.61291083
Cl      -1.02593098       0.43371900      -1.44415367      -0.12976386      -0.49779703       0.01945017
H       -1.30763580       1.22310463       0.67621563       0.02866869       0.14017740       0.20674372
H       -2.19987366      -0.21871343       0.56131325      -1.19650992      -1.00551894      -0.21357075
H       -0.36538570      -0.24568302       0.83325678      -0.73072776      -0.04126275      -0.95926890
Cl       1.56419199      -0.52189032       1.27859182       0.73818526      -0.17391132       0.33373494
6
Properties=species:S:1:pos:R:3:forces:R:3 energy=-26135.340433622332 free_energy=-26135.340433622332 dipole="1.3271598448633726 0.7436445021246785 -0.12553826755976794" pbc="F F F"
C        0.92455469       0.23518543      -0.90560558      -2.03206645       2.50189759       2.21050486
Cl       1.47796736       1.07092391       0.70419863      -0.03347194      -0.82916177      -1.61242276
H       -0.03474164      -0.22159190      -0.66383244       0.21572833      -0.68365547       0.22114193
H        0.67330663       1.01093675      -1.58714946      -0.12152414       1.25483443      -0.36750955
H        1.62562194      -0.31388504      -1.39617344       2.45537516      -2.01424537      -0.47779485
Cl      -1.85560140      -1.16412774      -0.29366094      -0.48404096      -0.22966942       0.02608038
6
Properties=species:S:1:pos:R:3:forces:R:3 energy=-26135.47219088529 free_energy=-26135.47219088529 dipole="-0.05797350393908553 -1.4945136537968957 0.06303929515037034" pbc="F F F"
C       -0.87048394      -0.92794388       0.21631927      -1.89381755      -0.26621783      -1.18182595
Cl       0.67425520      -1.72704264      -0.12978092      -0.23885298      -0.24787643      -0.03179299
H       -1.80194115      -1.47540932      -0.14273272       1.47953595       0.23657579      -0.34017065
H       -1.06079219      -0.89524524       1.25028364       0.43964670       0.09144036       1.63315801
H       -0.83976213       0.11902210      -0.13535643       0.13375759      -0.50662981      -0.06015423
Cl      -0.27404369       2.10546801       0.02884488       0.07973029       0.69270791      -0.01921418
6
Properties=species:S:1:pos:R:3:forces:R:3 energy=-26135.59907796715 free_energy=-26135.59907796715 dipole="0.27538969689034626 -0.4192507121364569 -1.5562564997070805" pbc="F F F"
C       -0.40530902      -0.04736843      -0.77682931       0.33476833      -0.77851645       2.21211243
Cl       0.83707312      -0.61597974      -1.88455995       0.39502454       0.08191635      -0.71759246
H       -0.29095745      -0.62379383       0.16334820       0.13134750       0.41120278      -0.57175787
H       -0.30175345       0.98059915      -0.43258990       0.13409710       0.00495569      -0.57856709
H       -1.37796434      -0.30750096      -1.11255473      -0.87869733       0.13019306      -0.84096805
Cl      -0.64371325       0.63062694       2.18705212      -0.11654013       0.15024857       0.49677304
6
Properties=species:S:1:pos:R:3:forces:R:3 energy=-26135.501083032454 free_energy=-26135.501083032454 dipole="1.0843908431929217 0.35344603107722344 0.9636715818772289" pbc="F F F"
C        0.11739892       0.62824246       0.94528401      -0.46471695      -0.85995967       1.03825879
Cl       1.81975522       0.04601082       0.79890645      -0.03047309       0.68948068       0.09997375
H       -0.39699185       0.41266949       0.00665562       0.04897897      -0.39045059       0.20242624
H       -0.29082028       0.04128006       1.80361974       0.07083508       0.35083754      -0.90129112
H       -0.07212903       1.67463458       1.16137342       0.99313696       0.43587723       0.15173331
Cl      -1.83792328      -0.31939397      -1.20368016      -0.61776097      -0.22578519      -0.59110096
6
Properties=species:S:1:pos:R:3:forces:R:3 energy=-26135.628596831848 free_energy=-26135.628596831848 dipole="-0.07520569412515171 -1.6084004133952925 0.08287316127919918" pbc="F F F"
C       -0.85413516      -0.93561466       0.20176380      -0.60230683      -0.39723258      -1.52083327
Cl       0.68077278      -1.87514776      -0.08111275      -0.63515653       0.32973359       0.19775381
H       -1.69607961      -1.48159038      -0.30560616       0.96498291       0.61702151      -0.05189060
H       -1.12487494      -0.96328327       1.21925035       0.22054252      -0.14071474       1.55184699
H       -0.72156090       0.13654405      -0.07885266       0.05832035      -0.72562949      -0.16615953
Cl      -0.29064942       2.25778426      -0.01098471      -0.00638242       0.31682172      -0.01071740
6
Properties=species:S:1:pos:R:3:forces:R:3 energy=-26135.626569726093 free_energy=-26135.626569726093 dipole="-1.1767858964298938 0.5369455330732728 -0.9226076398916502" pbc="F F F"
C       -0.34271094       0.84671693      -0.42658839       0.27261013      -2.03834619       1.15508880
Cl      -1.75490609       0.12563907      -1.23461602      -0.45519932      -0.36556090      -0.15395729
H        0.29595379       0.09605702       0.14174157      -0.67421192       0.48133356      -1.06738658
H        0.18862007       1.32616481      -1.19179994       0.93841269       0.91632181      -0.79370872
H       -0.70933765       1.47093569       0.34249735      -0.42992238       1.15850078       0.56121347
Cl       1.87741280      -0.49478491       1.39926974       0.34831081      -0.15224906       0.29875032
6
Properties=species:S:1:pos:R:3:forces:R:3 energy=-26135.615746522803 free_energy=-26135.615746522803 dipole="-1.1339802099899212 0.7890578505600196 -0.8362751593435782" pbc="F F F"
C       -0.55575254       1.32694241      -0.17223199      -1.89384876      -0.07175648       0.42523314
Cl      -1.37093563       0.07113355      -1.24995191       0.43003175       0.79395062       0.56344467
H       -0.33673390       2.18676448      -0.77102889       0.61940981       0.22783404      -0.71162363
H       -1.32901874       1.71317607       0.53502102       0.42248010      -0.71927249      -0.31631947
H        0.26690483       0.85031201       0.35748365       0.23106634      -0.15503336      -0.11661706
Cl       1.59900848      -0.65579250       1.30485264       0.19086075      -0.07572233       0.15588234
6
Properties=species:S:1:pos:R:3:forces:R:3 energy=-26135.576767124723 free_energy=-26135.576767124723 dipole="0.3782440911555037 -1.1181915226282613 0.9729912910981617" pbc="F F F"
C       -0.17626974      -0.26027581       0.98295889      -0.84840590       0.65523284       1.26880219
Cl       0.79827143      -1.72057699       0.77549512      -0.04009797      -0.61966063       0.12663604
H        0.47219304       0.47392300       1.46566894      -0.13700491      -0.07855192       0.10446356
H       -0.43199707       0.17542891       0.02624326      -0.07366304      -0.20845619      -0.32250580
H       -1.12147011      -0.38850636       1.60066949       1.26831468      -0.36153455      -0.64212983
Cl      -0.70780316       1.80134541      -1.19647232      -0.16914286       0.61297045      -0.53526615
6
Properties=species:S:1:pos:R:3:forces:R:3 energy=-26135.502339649796 free_energy=-26135.502339649796 dipole="1.3725645100298658 0.5423689967487093 -0.2945761924911002" pbc="F F F"
C        1.11508410      -0.42832319      -0.16659776      -0.71668698       1.08392035      -0.64219803
Cl       1.39548212       1.36988453      -0.35230501       0.22746584      -0.66528409       0.23732122
H        0.04928978      -0.55775445      -0.22385683      -0.65701389       0.11067372      -0.46376343
H        1.57013500      -0.92463564      -1.01248849       0.59378496      -0.22252103       0.27099608
H        1.25948656      -0.76611875       0.83932285       1.13392009      -0.08459158       0.44436976
Cl      -1.85514976      -1.16082708       0.42003997      -0.58147002      -0.22219737       0.15327440
6
Properties=species:S:1:pos:R:3:forces:R:3 energy=-26135.601487590728 free_energy=-26135.601487590728 dipole="-1.2244682445585642 0.5850962331963931 -0.922968242939194" pbc="F F F"
C       -0.50056754       0.62103707      -0.10582048       1.74928778      -1.01885087       0.96741428
Cl      -1.58686176       0.42982575      -1.46100091      -0.75063499       0.05847342      -0.95480506
H       -1.08085343       0.87016608       0.78112490       0.10726475       0.71410453      -0.13417299
H       -0.06512039      -0.37764623       0.18727550      -0.20588079       1.11011575      -0.71036924
H        0.36041372       1.30657578      -0.37049920      -1.26200332      -0.70436203       0.52351688
Cl       1.77879861      -0.69139880       1.47985353       0.36196657      -0.15948081       0.30841613
6
Properties=species:S:1:pos:R:3:forces:R:3 energy=-26135.520661254784 free_energy=-26135.520661254784 dipole="-0.8394957196759939 1.3285416244579389 0.006625693971635583" pbc="F F F"
C       -0.81484993       0.78297527      -0.83697202      -1.87029719       0.39121527      -1.55942894
Cl      -0.64026814       1.47111124       0.74543922      -0.31407258       0.83333257       1.02129328
H        0.01338306       0.12767422      -0.89744644       0.60612680      -1.09896799      -0.55137457
H       -1.80372488       0.25613275      -0.96173075       1.10773350       0.26835460       0.48967418
H       -0.80644228       1.55146876      -1.63563120       0.22624466      -0.04964130       0.58816337
Cl       0.99018974      -1.79142362      -0.36248752       0.24426482      -0.34429315       0.01167270
6
Properties=species:S:1:pos:R:3:forces:R:3 energy=-26135.500044230772 free_energy=-26135.500044230772 dipole="-0.7959103266003057 0.4762027045593458 -1.168630866031944" pbc="F F F"
C       -0.29002824       1.00762478      -0.50597848       1.26440937       1.08051486       0.23947810
Cl      -1.09620309      -0.10487203      -1.53489470      -0.92379511      -1.08088673      -1.37249473
H        0.71790864       1.25345866      -0.92177961      -0.87405716      -0.14178689       0.33446728
H       -0.89976905       1.88927656      -0.38233999      -0.16881552       0.45069048      -0.12793039
H       -0.14454538       0.50892709       0.44202891       0.17987860       0.09090149       0.20261924
Cl       1.20375023      -0.34035947       1.73084096       0.52237982      -0.39943321       0.72386050
6
Properties=species:S:1:pos:R:3:forces:R:3 energy=-26135.655788480908 free_energy=-26135.655788480908 dipole="-1.4107641665901673 0.32152953419686825 -0.8078036055748165" pbc="F F F"
C       -0.95750683      -0.07718203       0.09359302      -0.11965233       1.50625784       1.64377546
Cl      -1.50867579       0.64867688      -1.47545883       0.05646124       0.00639876       0.52592715
H       -1.59559296       0.27019307       0.98622078       0.65823991      -0.30196031      -1.63027431
H       -1.05556463      -1.12588249      -0.00942590      -0.07337271      -1.05936270      -0.13540355
H        0.10792139       0.15748692       0.34811040      -0.79138668      -0.08862482      -0.58521490
Cl       1.90540912      -0.60267345       1.40607519       0.26971057      -0.06270877       0.18119014
6
Properties=species:S:1:pos:R:3:forces:R:3 energy=-26135.584220279787 free_energy=-26135.584220279787 dipole="1.205992696952671 0.2807003902563256 1.034377246668112" pbc="F F F"
C        0.26821201       0.05358319       1.35603992      -0.65336929       2.01751373      -0.66602638
Cl       1.75798275       0.43723159       0.47957032       0.20484961       0.09789122       0.00084813
H       -0.58673335       0.08695269       0.68201308       0.04859729       0.36986873      -0.37330795
H        0.29565019      -0.91541056       1.67336326       0.48465151      -2.73927949       1.01829400
H        0.13739263       0.72028662       2.19643037       0.17085086       0.32096079       0.20200382
Cl      -1.84448697      -0.45231060      -1.06844526      -0.25557998      -0.06695498      -0.18181161
6
Properties=species:S:1:pos:R:3:forces:R:3 energy=-26135.696947138407 free_energy=-26135.696947138407 dipole="-1.576550342542648 0.26477431526137307 -0.7202064507613445" pbc="F F F"
C       -0.95969118      -0.25350001       0.06159697       1.36183608      -1.35172540      -0.91514748
Cl      -1.69082993       0.68437426      -1.25062870      -0.49607269       0.34127506      -0.13247299
H       -1.45977116      -0.18164235       0.98530795      -1.10277512       0.50756884       0.98770292
H       -0.99794627      -1.33133354      -0.24436494       0.36804194       1.00892740       0.19982450
H        0.07321986       0.09889120       0.22652982      -0.31847437      -0.48296458      -0.25457456
Cl       2.08378971      -0.55827593       1.20224919       0.18744416      -0.02308132       0.11466760
6
Properties=species:S:1:pos:R:3:forces:R:3 energy=-26135.575454610513 free_energy=-26135.575454610513 dipole="0.7053018142561335 -1.2836189815207761 -0.13930944669741915" pbc="F F F"
C        0.32593506      -0.81056098       0.62573108      -1.93703962       0.65430214      -0.99298907
Cl       0.98949878      -1.55996803      -0.85241706       0.44561951      -0.37248751      -0.17656591
H        1.02342854      -0.85506118       1.43754665       0.44054528      -0.14199617       0.35115977
H        0.01381411       0.24793507       0.34083241       0.59469269      -1.21110516       0.63154350
H       -0.63210349      -1.34776638       0.82933599       0.88289938       0.32779615       0.15071373
Cl      -1.11145044       1.89018466       0.56626098      -0.42671723       0.74349054       0.03613797
6
Properties=species:S:1:pos:R:3:forces:R:3 energy=-26135.583519177475 free_energy=-26135.583519177475 dipole="0.8191466810114788 1.055003670501215 0.8597640249485565" pbc="F F F"
C        0.39907865       1.17787972      -0.05375245       0.32185225      -0.01329256      -0.43349095
Cl       1.03658385       0.67415592       1.49160740       0.62176934      -0.22110957       0.70697298
H       -0.38824613       1.82962132       0.14598558      -1.61381214       1.07066591       0.43539926
H        1.09152041       1.74791989      -0.63507489       1.01581108       0.14451636      -0.22014209
H        0.01024827       0.33885747      -0.60145689      -0.05599210      -0.60779197      -0.20931090
Cl      -1.19208637      -1.18460001      -1.44238620      -0.28962843      -0.37298816      -0.27942829
6
Properties=species:S:1:pos:R:3:forces:R:3 energy=-26135.52840799083 free_energy=-26135.52840799083 dipole="-0.1849650286467821 -1.4769742164430724 0.6001876179267437" pbc="F F F"
C       -0.45882747      -0.95807900      -0.28338246       2.25297721       1.40480183       1.21027908
Cl       0.13232064      -1.55719772       1.28510974      -0.11941782      -0.35028279       0.68736114
H       -0.71111993      -1.77854913      -0.84058086      -0.59561825      -1.99912125      -1.63576537
H       -1.23403439      -0.26980028      -0.15032389      -1.35084167       0.81933862       0.40383123
H        0.36585837      -0.34193601      -0.64459765      -0.23613111      -0.33914176      -0.49018411
Cl       0.06804346       1.94977585      -1.14259089       0.04903163       0.46440535      -0.17552198
6
Properties=species:S:1:pos:R:3:forces:R:3 energy=-26135.5557614641 free_energy=-26135.5557614641 dipole="-1.034032943337008 0.10855981202521779 -1.3839348444429989" pbc="F F F"
C       -0.56962869      -0.10078233      -0.35817465       0.76351211       1.65255631       2.30809207
Cl      -1.12304273       0.28247488      -1.91749746      -0.92919315       0.67885204      -2.33212294
H        0.35613696       0.45939197      -0.08504725      -0.73475316      -0.82469278      -0.30182356
H       -1.31741168       0.11991456       0.39710566      -0.19518565       0.53631369       0.00085828
H       -0.48481620      -1.13022510      -0.27879954       0.92192452      -2.00538749       0.02529334
Cl       1.35716036      -0.23266325       2.03790679       0.17369533      -0.03764177       0.29970282
6
Properties=species:S:1:pos:R:3:forces:R:3 energy=-26135.498297830167 free_energy=-26135.498297830167 dipole="-1.0341994923388431 0.6527055149082687 -0.783600376136083" pbc="F F F"
C       -0.55018187       1.22840980      -0.19239765       2.99728152       0.21526310       0.73452466
Cl      -1.32962418       0.07045230      -1.20899802      -0.80713512      -0.62279491      -0.73508051
H       -0.25337184       2.11822268      -0.75248020      -0.23416848      -0.05046376      -0.22919268
H       -1.14215299       1.52373325       0.64417512      -0.77336587       0.02960899       0.52092858
H        0.41545265       0.72182451       0.23064545      -1.63617637       0.75948834      -0.61070226
Cl       1.54390195      -0.61073780       1.27070660       0.45356432      -0.33110176       0.31952221
6
Properties=species:S:1:pos:R:3:forces:R:3 energy=-26135.61632534708 free_energy=-26135.61632534708 dipole="-0.0009228945804131291 1.1000329389420658 -1.0401324070859652" pbc="F F F"
C        0.27552266       0.20754556      -1.33302208      -0.37424405      -1.35369759       0.57640797
Cl      -0.23952866       1.70354976      -0.58622230      -0.30764083       0.94312693       0.44772719
H       -0.58590174      -0.18213956      -1.89287010       0.44701559       0.14740411      -0.18575044
H        1.13594276       0.44749981      -1.93210592       0.27729297      -0.15101265      -0.49230783
H        0.48253877      -0.54422975      -0.51512569      -0.03681630       0.76443478      -0.68937262
Cl       0.11681659      -1.76593987       1.16127874      -0.00560738      -0.35025558       0.34329573
6
Properties=species:S:1:pos:R:3:forces:R:3 energy=-26135.68068942619 free_energy=-26135.68068942619 dipole="-1.220571054431747 0.6236149746186522 -0.9821454832128198" pbc="F F F"
C       -0.29177719       0.60406338      -0.33812859      -0.21678396       1.65958141       0.25627563
Cl      -1.79062723       0.45397998      -1.34348622       0.51242117      -0.11149040      -0.10442523
H        0.10711009      -0.30019179       0.04089056      -0.33435236      -1.25201861       0.48119285
H        0.56878986       1.03302449      -0.84970573      -0.42004489       0.25749083      -0.64512648
H       -0.57419303       1.29418751       0.47113833       0.21539839      -0.48260711      -0.14915727
Cl       1.88659381      -0.71628299       1.46765098       0.24336165      -0.07095612       0.16124051
6
Properties=species:S:1:pos:R:3:forces:R:3 energy=-26135.435490226257 free_energy=-26135.435490226257 dipole="0.03788897714915681 1.3923046990921717 -0.7849910268574071" pbc="F F F"
C       -0.53353488       1.00077900      -0.01695439      -1.29917556       1.68397012       3.16696054
Cl       0.52878480       1.42444509      -1.28350857       0.86541934       0.21746504      -1.22148303
H       -1.57332622       1.25673035      -0.20903329      -0.03054952       0.53852252      -0.47428040
H       -0.58989434      -0.01601761       0.27925066       0.75286238      -1.35967834      -0.30683143
H       -0.23444238       1.53028565       0.95718511      -0.28550624      -0.49668485      -1.48085127
Cl      -0.27983892      -1.84231598       1.26003939      -0.00305040      -0.58359449       0.31648559
6
Properties=species:S:1:pos:R:3:forces:R:3 energy=-26135.69586746408 free_energy=-26135.69586746408 dipole="-1.527486711716812 -0.5753737338623359 -0.4280737287482507" pbc="F F F"
C       -0.56218781      -0.98802046      -0.22289680       0.58401041       1.26524653      -1.04409669
Cl      -2.04463230      -0.04148672      -0.51729286      -0.26161453      -0.09552595      -0.15538815
H       -0.31068031      -1.60284485      -1.07456360      -0.32717245      -0.35478825      -0.18147016
H        0.26045052      -0.29639871      -0.07385295       0.17274755       0.32038266      -0.04121289
H       -0.66107061      -1.49776118       0.68013352      -0.41559076      -1.21037253       1.35333771
Cl       2.25533551       0.47283494       0.60612904       0.24761978       0.07505754       0.06883018
6
Properties=species:S:1:pos:R:3:forces:R:3 energy=-26135.63419114334 free_energy=-26135.63419114334 dipole="-1.2919520287198913 0.13338295351574717 -0.7444393702166537" pbc="F F F"
C       -1.35393184      -0.06410512       0.21700224      -0.15900073       0.75565403       0.96195823
Cl      -1.02134576       0.29283863      -1.48431251      -0.23055579       0.10797384      -0.51623698
H       -1.89449037      -1.00980376       0.29154732      -0.03858105       0.12825815      -0.07545747
H       -0.35213671      -0.13136242       0.69451581      -0.55591030      -0.05934178      -0.03113484
H       -1.94176499       0.78384842       0.67356990       0.48374200      -0.88941906      -0.58780794
Cl       1.59917297      -0.26095872       1.36359815       0.50030587      -0.04312519       0.24867900
6
Properties=species:S:1:pos:R:3:forces:R:3 energy=-26135.50787785968 free_energy=-26135.50787785968 dipole="-0.7342560437880808 -0.4349129547203614 -1.4048346433397878" pbc="F F F"
C       -0.33625091      -0.81348670      -0.50962495       1.86609936      -1.46799373       1.73400638
Cl      -0.91421097       0.00340865      -1.87825525      -0.55651444       1.00040216      -1.60320900
H        0.12058129      -1.77288407      -0.74853093      -0.33268017      -0.25605869      -0.47305923
H        0.44578083      -0.33560413       0.09163303      -0.12802384       0.79165659      -0.54773836
H       -1.08928111      -0.96292389       0.22185761      -1.07806887      -0.18891318       0.44269256
Cl       1.04300679       0.35954684       2.06329407       0.22918797       0.12090685       0.44730765
6
Properties=species:S:1:pos:R:3:forces:R:3 energy=-26135.51124310477 free_energy=-26135.51124310477 dipole="-1.202672144882079 0.3534300938471729 -0.6382215510016587" pbc="F F F"
C       -1.29721040       0.21124960       0.31665780      -0.67254605      -1.03022178       0.39244396
Cl      -0.96454853       0.41801034      -1.41560290      -0.10740242      -0.22793299      -0.46232708
H       -1.42845081       1.22569453       0.66746014      -0.30565161       0.02582309       0.47662473
H       -2.18762211      -0.46498394       0.48066473       0.64598946       0.99911922      -0.39168836
H       -0.40696331      -0.26079665       0.78739190      -0.38983341       0.44990247      -0.35774235
Cl       1.51845586      -0.50379968       1.25327913       0.82944403      -0.21669000       0.34268909
6
Properties=species:S:1:pos:R:3:forces:R:3 energy=-26135.417263628053 free_energy=-26135.417263628053 dipole="-1.281971766637391 -0.5305794359782918 -0.35468327914615433" pbc="F F F"
C       -0.78161085      -0.86183756       0.38576714       0.29760210      -0.44452792       2.09153675
Cl      -1.56841528      -0.14088391      -0.94495877      -1.42561324       0.96559082      -1.34525111
H       -0.39869949      -1.77766383       0.01991644       0.55131775      -1.13717060      -0.15741249
H        0.07469354      -0.23108011       0.66527797      -0.30912587      -0.18676547       0.03237444
H       -1.41340086      -1.07627332       1.27719225      -0.08119392       0.35124871      -0.76660680
Cl       1.88263909       0.52060826       0.75845567       0.96701318       0.45162446       0.14535921
6
Properties=species:S:1:pos:R:3:forces:R:3 energy=-26135.630624529287 free_energy=-26135.630624529287 dipole="-1.2074039691807137 0.6299745014493868 -0.882502116681807" pbc="F F F"
C       -0.52738313       0.71463349      -0.08358414      -0.92103623      -1.84417328       1.50413068
Cl      -1.58216004       0.38834448      -1.48527665       0.06623556      -0.06671429      -0.30603094
H       -1.19780801       0.80928271       0.77852180       0.00976152      -0.28517800      -0.08632681
H        0.22545814      -0.07861084       0.17480893      -0.64412155       0.58930994      -0.68366495
H       -0.09524686       1.65230315      -0.16412756       1.14320990       1.77966493      -0.70368703
Cl       1.79120196      -0.69823169       1.49115570       0.34595080      -0.17290930       0.27557907
6
Properties=species:S:1:pos:R:3:forces:R:3 energy=-26135.560310059467 free_energy=-26135.560310059467 dipole="0.0025885645190165093 1.1623554106430063 -1.079091707057221" pbc="F F F"
C        0.26596678       0.22013116      -1.33184107       1.79485365      -1.53360386      -0.00696606
Cl      -0.23952137       1.71680985      -0.59385859      -0.38732849       0.48084901       0.46382580
H       -0.51594685      -0.22535222      -1.92864486      -0.37487844       0.11519245      -0.13576527
H        1.13211452       0.46477838      -1.95045523      -0.16172047       0.06136463      -0.33497706
H        0.63302335      -0.56915154      -0.60115247      -0.89635382       1.18915279      -0.25634281
Cl       0.11388776      -1.78201809       1.17249999       0.02542756      -0.31295502       0.27022540
6
Properties=species:S:1:pos:R:3:forces:R:3 energy=-26135.628338052436 free_energy=-26135.628338052436 dipole="0.43771800193197913 -1.3479696005535438 -0.5539296391620773" pbc="F F F"
C        0.31798072      -0.43929497      -0.96644055       0.79188483      -0.79858931      -1.02065811
Cl       0.43499900      -1.96017799      -0.04127576      -0.10667106      -0.36413990       0.13133019
H       -0.12691565       0.33629348      -0.37225100      -0.60786276       0.23546753       0.22909588
H        1.33682416      -0.14499511      -1.17166232       0.38919026       0.14175443      -0.03579163
H       -0.14982564      -0.65284613      -1.93451554      -0.25703753       0.06058511       0.35858362
Cl      -0.57287855       2.12214166       0.46762763      -0.20950373       0.72492215       0.33744006
6
Properties=species:S:1:pos:R:3:forces:R:3 energy=-26135.623731837994 free_energy=-26135.623731837994 dipole="-1.140765112746304 0.6885342845242964 -0.8854161003139913" pbc="F F F"
C       -0.43640750       0.95919356      -0.15519253       0.80765157      -0.82317502      -2.08391960
Cl      -1.57783036       0.24515496      -1.38703219       0.12946492       0.36805201       0.16708289
H        0.21249591       1.67050731      -0.64462519      -0.20899785       0.56735740      -0.39982490
H       -1.00879343       1.40580381       0.59603908      -0.77269867       0.41023788       1.30590102
H        0.25818240       0.17427318       0.11905656      -0.34577366      -0.32158479       0.75101396
Cl       1.74099286      -0.66257281       1.43761000       0.39035370      -0.20088748       0.25974663
6
Properties=species:S:1:pos:R:3:forces:R:3 energy=-26135.5197633775 free_energy=-26135.5197633775 dipole="-1.2184465746221547 0.44181055846398704 -0.7599830485298227" pbc="F F F"
C       -1.02563654       0.83396259       0.14447643      -2.25398692      -0.33668255      -1.13979908
Cl      -1.10035623       0.00300283      -1.45776777       0.24191330       0.18150606      -0.14825704
H       -1.48377621       1.81485838      -0.00955788       0.28560599      -0.06491287       0.25958660
H       -1.63880776       0.18242162       0.74325125      -0.52045483       0.11886195       0.50441265
H       -0.06997380       0.74618587       0.56417178       1.74822368       0.33313923       0.20172102
Cl       1.53863603      -0.36357091       1.37191292       0.49869878      -0.23191183       0.32233584
6
Properties=species:S:1:pos:R:3:forces:R:3 energy=-26135.430112409613 free_energy=-26135.430112409613 dipole="0.9212476094804382 1.0840137224079274 0.4035194447355609" pbc="F F F"
C        1.30198959       0.21805733       0.01137051       2.22534333       0.55200858       2.21484344
Cl       0.30291839       1.57434915       0.61591003      -0.22527837      -0.22396282      -0.13942137
H        2.33333259       0.65228196       0.07481827      -0.60885245      -0.40983209      -0.57355302
H        1.29546216      -0.62281552       0.73201499      -0.47776863       0.58357700      -0.43585834
H        1.00057497      -0.14917393      -0.93231382      -0.43795403      -0.00622119      -0.89510384
Cl      -0.87568571      -1.64482649      -0.61619457      -0.47548984      -0.49556948      -0.17090688
6
Properties=species:S:1:pos:R:3:forces:R:3 energy=-26135.624731610686 free_energy=-26135.624731610686 dipole="-1.064462760236815 0.2635190794007007 -1.0400190721444245" pbc="F F F"
C       -0.30108116       0.27867931      -0.28564078       0.57764489       1.05591699       0.06881088
Cl      -1.61166844       0.18588099      -1.53953699       0.14194842       0.22285538       0.28957396
H        0.66727666       0.26608899      -0.75180492       0.18545143      -0.19741098      -0.71244615
H       -0.26229413       1.22303611       0.29809511      -0.85065072      -0.61324855      -0.41133486
H       -0.29536701      -0.56843344       0.36495913      -0.59433505      -0.40783693       0.28103574
Cl       1.71056247      -0.30648111       1.63884002       0.53994103      -0.06027591       0.48436043
6
Properties=species:S:1:pos:R:3:forces:R:3 energy=-26135.616502419678 free_energy=-26135.616502419678 dipole="0.5587756704862958 -1.2548269702043728 0.7713274220381825" pbc="F F F"
C        0.08956114      -0.32661942       0.39289355      -2.42429150      -1.00737246      -0.08139639
Cl       0.86014601      -1.83028481       0.92053469       0.31299069      -1.19079325       0.40077968
H        0.79275189       0.14677755      -0.19589314       1.06600570       1.03726771      -1.40422615
H       -0.88223391      -0.52452166      -0.16966020       1.59656451       0.23040183       0.83552240
H       -0.08356317       0.25106249       1.27271595      -0.34016244       0.45087557       0.47916766
Cl      -0.88557025       1.94455056      -1.07944765      -0.21110696       0.47962060      -0.22984720
6
Properties=species:S:1:pos:R:3:forces:R:3 energy=-26135.626907012178 free_energy=-26135.626907012178 dipole="-0.9774791244852584 0.3366727031506902 -1.131370669415455" pbc="F F F"
C       -0.19311989      -0.09796925      -0.52827335       0.42373214      -0.17540729       0.17168081
Cl      -1.52637245       0.67449906      -1.46135184       0.22086593      -0.04084337      -0.19122746
H        0.42433696      -0.78130567      -1.10494054      -0.60694065      -0.32137189      -0.44832785
H        0.54811292       0.58540005      -0.15458174      -0.28639381       0.93245050       0.03031797
H       -0.60069640      -0.57746666       0.34723860      -0.25301901      -0.18497036      -0.06405302
Cl       1.58123382      -0.61931520       1.66627915       0.50175540      -0.20985759       0.50160956
6
Properties=species:S:1:pos:R:3:forces:R:3 energy=-26135.563690240804 free_energy=-26135.563690240804 dipole="-0.8335661292201085 0.9107926161722149 0.8418732070476151" pbc="F F F"
C       -0.38905871       0.04627484       0.43652275       0.16006558      -0.62249709      -1.28387937
Cl      -1.09935469       1.56005777       1.05829737      -0.09777909       0.15166355       0.42886830
H       -1.03456843      -0.82338025       0.61749975      -0.21006324       0.55513478      -0.20862488
H       -0.14736379       0.16135575      -0.64352187      -0.68739023      -0.00406274       0.91967352
H        0.56664549      -0.23236709       0.84955739       0.28747614       0.58674302       0.64276894
Cl       1.24866903      -1.55030489      -1.22961467       0.54769085      -0.66698152      -0.49880652
6
Properties=species:S:1:pos:R:3:forces:R:3 energy=-26135.493063403785 free_energy=-26135.493063403785 dipole="-0.9261864378494785 -0.30075470631930323 1.121728644176517" pbc="F F F"
C       -0.19686390      -0.62789459       0.47676531       1.35580524       1.19092238       1.30722951
Cl      -1.46728440       0.08413753       1.48797598      -1.00579446      -0.09829592       0.49127572
H        0.72401731      -0.40758183       1.06232060      -0.46412566      -0.22916968      -0.78869302
H       -0.26978556      -1.67898990       0.35388238      -0.55695132      -0.98624943      -0.07419964
H       -0.14539526      -0.08637125      -0.45331797      -0.11242524      -0.08951836      -0.09182905
Cl       1.52520330       0.19038909      -1.67689040       0.78349144       0.21231101      -0.84378351
6
Properties=species:S:1:pos:R:3:forces:R:3 energy=-26135.445200054462 free_energy=-26135.445200054462 dipole="-0.6088796478327838 -0.4299303528124633 -1.1862478722980008" pbc="F F F"
C       -0.40299917      -0.90180801      -0.37500400      -1.46680138      -0.60736239       0.23379664
Cl      -0.71313218       0.07326591      -1.83650857       0.10124364      -0.26263772      -0.39220261
H        0.09722264      -1.85164306      -0.53222167       0.42967354       0.10475277      -0.68025870
H        0.10337758      -0.28378108       0.35883532       0.22133634      -0.00712096      -0.20802785
H       -1.38122773      -1.17204755       0.05080665       0.09928657       0.25049375      -0.18006426
Cl       0.88324489       0.32632640       1.96705112       0.61526129       0.52187456       1.22675677
6
Properties=species:S:1:pos:R:3:forces:R:3 energy=-26135.51970399148 free_energy=-26135.51970399148 dipole="0.0877492048889149 -0.16868077688179617 1.4282853981312384" pbc="F F F"
C        0.42524535       0.43884420       0.72514430      -0.17267265      -0.71336973       0.88540342
Cl      -0.27870124      -0.75145299       1.89834921       0.10957281      -0.30130837       0.04538465
H        0.37713460       1.35171966       1.29178667       0.22277437       0.62366443      -0.27631812
H        1.41620023       0.12463659       0.43375243       0.43140814      -0.01761242       0.40021227
H       -0.12061010       0.39224326      -0.20448566      -0.57438134       0.31226007       0.10655274
Cl       0.08705869       0.54963335      -2.18728941      -0.01670132       0.09636602      -1.16123496
6
Properties=species:S:1:pos:R:3:forces:R:3 energy=-26135.70359793248 free_energy=-26135.70359793248 dipole="-1.3530514692268398 -0.5537120409639162 -0.4030652461147846" pbc="F F F"
C       -0.30452226      -0.46784884      -0.20005432      -0.34758983      -0.12172360       0.28767725
Cl      -2.09874344      -0.49926328      -0.51861404       0.08977671       0.08047396      -0.03381943
H        0.18296206       0.39777576      -0.62133716      -0.36111057       0.18873380      -0.27425549
H       -0.13173231      -0.42458198       0.87188429      -0.22330847      -0.10788228      -0.10854176
H        0.09529471      -1.37397346      -0.62671555       0.15619903      -0.23935940      -0.06331092
Cl       2.19775388       0.69760794       0.59709162       0.68603314       0.19975754       0.19225036
6
Properties=species:S:1:pos:R:3:forces:R:3 energy=-26135.47437004914 free_energy=-26135.47437004914 dipole="-0.9658180019031485 0.016153570394482755 -1.2023555476821883" pbc="F F F"
C       -0.70547693      -0.26375123      -0.24423030       3.10988371      -0.62336500      -0.14420040
Cl      -1.01511614       0.27645216      -1.84740478      -0.72298019       0.77184929      -1.97337594
H        0.36761575      -0.02118212       0.01074464      -1.26912387      -0.52516855      -0.32888421
H       -1.25734500       0.25770170       0.45682344      -1.48333977       0.87968710       1.33104938
H       -0.84270259      -1.32732932      -0.23858096      -0.16011248      -0.49077497       0.38622827
Cl       1.30340315      -0.15607269       1.92364261       0.52567260      -0.01222787       0.72918291
6
Properties=species:S:1:pos:R:3:forces:R:3 energy=-26135.472989384478 free_energy=-26135.472989384478 dipole="0.7093242675079948 1.271927393677477 0.25726063176731034" pbc="F F F"
C        0.70457052       0.44176094       0.77345511      -2.16559206       0.31773982      -2.10325529
Cl       0.58859154       1.90319436      -0.32197074       0.14645504      -0.20005890       0.43154566
H        1.68541436       0.11844559       0.75467662       2.01401355      -0.98559479      -0.57523615
H        0.51928425       0.72922834       1.74665526      -0.72191897       1.04739515       2.14493415
H       -0.07897854      -0.29305675       0.42313271       1.14790493       0.51867797       0.25600451
Cl      -0.88775437      -2.06863991      -0.02324307      -0.42086250      -0.69815924      -0.15399287
6
Properties=species:S:1:pos:R:3:forces:R:3 energy=-26135.565644436505 free_energy=-26135.565644436505 dipole="-1.0417132419800572 0.3565456458414559 -1.0533092609483057" pbc="F F F"
C       -0.17606850       0.24322515      -0.42398347       1.11080169       0.06014964       0.64996578
Cl      -1.63518485       0.36706103      -1.43881129      -0.13442697      -0.08088491      -0.90620578
H        0.45976543      -0.66762257      -0.49382154      -1.21158186       0.32060603      -0.30029092
H        0.54394826       1.06242397      -0.57598331      -0.67562092       0.00174410      -0.22962595
H       -0.58563353       0.32885197       0.56937890       0.34357044      -0.17471010       0.27173908
Cl       1.68295168      -0.47004608       1.59669266       0.56725762      -0.12690475       0.51441778
6
Properties=species:S:1:pos:R:3:forces:R:3 energy=-26135.689296636792 free_energy=-26135.689296636792 dipole="1.1696407292993818 1.0164881046713963 0.34351887034027184" pbc="F F F"
C        0.25132817       0.48265186       0.05144801      -0.30119856      -1.65629376       1.44169310
Cl       1.78381890       1.30144507       0.52666471      -0.06091067      -0.01514984      -0.09815892
H        0.22156238      -0.60153570       0.32171550       0.72518835       0.90600962      -0.27436848
H       -0.57637589       0.85473018       0.64108004      -0.02420246       0.62745960      -0.10962329
H        0.06255633       0.53075857      -0.99149300       0.04362636       0.40137528      -0.85272637
Cl      -1.86066256      -1.48726612      -0.54328008      -0.38250301      -0.26340090      -0.10681604
6
Properties=species:S:1:pos:R:3:forces:R:3 energy=-26135.683650326766 free_energy=-26135.683650326766 dipole="1.5108281644439587 0.380958229426587 0.2993996962122879" pbc="F F F"
C        0.57100162      -0.05562396      -0.07414776      -0.81786513      -1.51637559       0.37395540
Cl       2.06513698       0.73091913       0.59449710      -0.15397460      -0.15579042      -0.11231574
H        0.53170814       0.07632212      -1.16702089       0.04539942       0.18764372       0.61719978
H        0.57436774      -1.17711585       0.14344950       0.33211338       1.59581577      -0.23573641
H       -0.35839406       0.31765932       0.41683114       1.03953702       0.05193741      -0.51935054
Cl      -2.27986092      -0.68980492      -0.55212240      -0.44521009      -0.16323089      -0.12375250
6
Properties=species:S:1:pos:R:3:forces:R:3 energy=-26135.48239317039 free_energy=-26135.48239317039 dipole="-0.1547753592444324 1.0289109206969742 -1.0156527820400278" pbc="F F F"
C        0.01063186       0.05706740      -0.74415560      -0.44723022       0.28233262       1.58163406
Cl      -0.28714163       1.77203129      -1.07340552      -0.14993624       0.91206454      -0.22291362
H       -0.72198437      -0.33459738      -0.01864448       0.03976224       0.39623575      -0.81972161
H       -0.00197956      -0.43779567      -1.67352697       0.08056523      -0.81423890      -1.01828880
H        0.92550144      -0.05606709      -0.17782706       0.30863601       0.15921490      -0.42022174
Cl       0.27780880      -1.76780981       1.37870909       0.16820298      -0.93560891       0.89951170
6
Properties=species:S:1:pos:R:3:forces:R:3 energy=-26135.579276191496 free_energy=-26135.579276191496 dipole="1.3491210748175917 0.7118291363010342 -0.13338291753169684" pbc="F F F"
C        0.31260508       0.62470117       0.06942392      -1.16488531      -1.40093407      -1.82834526
Cl       2.04656132       0.63572756      -0.28741118       0.79694864       0.17903522      -0.07223594
H        0.13532258       0.24170681       1.05486913       0.04048652       0.00684157       0.42371345
H       -0.10285250       1.60470080      -0.09378345      -0.00171365       0.45738234       0.17980431
H       -0.23440850      -0.08915969      -0.64706208       1.13047398       1.12323570       1.18349911
Cl      -2.14673468      -0.89735215       0.25496022      -0.80131019      -0.36556076       0.11356434
6
Properties=species:S:1:pos:R:3:forces:R:3 energy=-26135.49130871318 free_energy=-26135.49130871318 dipole="-1.2947826457743232 -0.5051747583672767 -0.36340729252280096" pbc="F F F"
C       -0.46213279      -0.99394623      -0.15435195      -0.85288621      -0.86717636      -1.19513490
Cl      -1.88965611       0.05620409      -0.50382100      -0.28790680      -0.26517546      -0.24236187
H       -0.02093277      -1.37766334      -1.11830236      -0.68704852       0.32987509       0.99801907
H        0.23364182      -0.31693813       0.28146737       0.62890073       0.11359040       0.49535701
H       -0.79028315      -1.79695544       0.52144054       0.13334058       0.20996059      -0.31684343
Cl       2.06265672       0.37984041       0.56508585       1.06560022       0.47892574       0.26096412
6
Properties=species:S:1:pos:R:3:forces:R:3 energy=-26135.365476727755 free_energy=-26135.365476727755 dipole="1.2253497394890862 0.59007990721732 0.16190757635024758" pbc="F F F"
C        0.91084368       0.49286093      -0.75898317       2.85914031      -0.34483972       0.79991957
Cl       1.36686801       0.61947539       1.05808905      -0.32073920       0.36601000      -1.22208256
H        1.71211635      -0.19618034      -1.13062924      -0.91608118       0.52746758       0.06556132
H       -0.07373325       0.09887085      -0.80309460      -0.75866738      -0.59616751       0.08578135
H        0.96185945       1.43671917      -1.28054470       0.31155063       0.62015655       0.32472949
Cl      -1.74941210      -0.82454951      -0.70953815      -1.17520319      -0.57262689      -0.05390917
6
Properties=species:S:1:pos:R:3:forces:R:3 energy=-26135.649666663612 free_energy=-26135.649666663612 dipole="-1.0809173938341725 -1.0335432210500866 -0.3165460469754969" pbc="F F F"
C       -0.25580554      -0.50790296       0.11009171       0.84469510       0.65283609       0.38385164
Cl      -1.65181063      -1.31328376      -0.68483654      -0.13105607      -0.16106363      -0.20813517
H        0.37652954       0.12239846      -0.58148011      -1.19419821      -0.79695215       0.63735882
H       -0.64747741       0.12395315       0.93553474       0.27961606      -0.36896105      -0.79460578
H        0.40024569      -1.27744633       0.54745859      -0.36143275       0.19671092      -0.24188162
Cl       1.73480493       1.51468760       0.62190179       0.56237587       0.47742982       0.22341211
6
Properties=species:S:1:pos:R:3:forces:R:3 energy=-26135.363467451964 free_energy=-26135.363467451964 dipole="-1.0034003325006824 -0.6321669784138279 -0.6995498236097714" pbc="F F F"
C       -0.49875377      -1.23416175      -0.07676732      -0.37267095       0.24133181      -0.05904406
Cl      -1.26547743       0.07962669      -1.11628813       0.29260648      -0.99336062       0.73615895
H       -0.41557490      -0.93097664       0.97117738      -0.68069472       0.19935058      -0.36703185
H       -1.00917679      -2.18074939      -0.22324479      -0.41653846       0.00161079      -0.22282462
H        0.53643805      -1.29585332      -0.34258038       0.39139884      -0.02764219      -0.58370089
Cl       1.45972149       0.46385305       1.13077212       0.78589880       0.57870963       0.49644247
6
Properties=species:S:1:pos:R:3:forces:R:3 energy=-26135.357005239464 free_energy=-26135.357005239464 dipole="-0.6414164525894885 -0.49285226058221426 -1.1161621444302423" pbc="F F F"
C       -0.49362251      -1.29010274      -0.57109515      -0.41988476       2.05796453       1.15956816
Cl      -0.68266269       0.33868023      -1.41535435      -0.08587004      -0.51349528       0.15502271
H       -0.54930874      -1.04909370       0.55452022      -0.22901579      -0.51056219      -1.76573342
H       -1.26846775      -1.87873265      -1.04223129       0.10701713      -0.59069425       0.14370372
H        0.53633545      -1.53221307      -0.74883758       0.28320859      -0.63937603      -0.27151855
Cl       0.88634654       0.22524484       1.64401062       0.34454486       0.19616322       0.57895737
6
Properties=species:S:1:pos:R:3:forces:R:3 energy=-26135.61224933406 free_energy=-26135.61224933406 dipole="-0.6617317085808813 -1.364150405053168 -0.5130373739055042" pbc="F F F"
C       -0.45275928      -0.29473563      -0.69206396      -2.16867408      -1.47908749      -0.42371717
Cl      -0.65116021      -2.02547108      -0.18169387       0.22287159      -0.44330216      -0.05545201
H       -0.78974959       0.24081497       0.15679448      -0.17404282       0.80588577       0.44077448
H        0.55349974      -0.08476124      -0.88307189       1.32770734       0.23449088      -0.37149324
H       -1.14504042      -0.22307356      -1.54856782       0.56587876       0.40577159       0.26475065
Cl       0.84383813       2.12723767       0.48085957       0.22625921       0.47624140       0.14513730
6
Properties=species:S:1:pos:R:3:forces:R:3 energy=-26135.615786766837 free_energy=-26135.615786766837 dipole="1.225277272903517 0.2899649068233738 0.8049419618021745" pbc="F F F"
C        0.27571267      -0.10172846       0.74605164       0.73118713       1.59008847      -0.76794515
Cl       1.95972394       0.63763460       0.69176918      -0.08640388      -0.18440054      -0.02697433
H       -0.09204975      -0.30384589      -0.26329633       0.25831445       0.36327136       0.21786031
H        0.38035318      -1.01287086       1.25741043      -0.05153062      -1.06144345       1.01740603
H       -0.32112184       0.67154528       1.23450261      -0.12436904      -0.52326376      -0.04291640
Cl      -2.05220642      -0.58482237      -1.00791225      -0.72719805      -0.18425208      -0.39743046
6
Properties=species:S:1:pos:R:3:forces:R:3 energy=-26135.750473969856 free_energy=-26135.750473969856 dipole="1.1372350848185557 0.9219580812158096 0.3685678630767383" pbc="F F F"
C        0.25949623       0.32609098       0.17009664       0.40242134       0.05806810      -0.22953673
Cl       1.79468079       1.35059631       0.48916250      -0.78932114      -0.20630733      -0.20988157
H        0.57212811      -0.69371958       0.32464642       0.00388969      -0.13784809       0.12259601
H       -0.53257515       0.59935870       0.86019945       0.25639271       0.17465185       0.09000977
H       -0.10277503       0.41525127      -0.85908926       0.45146338       0.34738315       0.30255249
Cl      -1.88080439      -1.47020523      -0.55605653      -0.32484598      -0.23594768      -0.07573997
6
Properties=species:S:1:pos:R:3:forces:R:3 energy=-26135.479349580048 free_energy=-26135.479349580048 dipole="1.4261893451922203 0.1810157981747237 0.3029252695262777" pbc="F F F"
C        0.62818794      -0.46506655       0.20583369       1.08706651       0.22900945      -0.05914782
Cl       1.92222322       0.78596463       0.34256494       0.30674688      -0.37162456       0.07537058
H        0.64688831      -1.19477768       0.98173120       0.44816693      -0.32245699       0.87645967
H       -0.28378094       0.04111856       0.22493007      -1.13956625       0.85714104       0.22036092
H        0.65547883      -0.96712639      -0.73300912       0.44955184      -0.16093826      -0.83228496
Cl      -2.16402577      -0.56808970      -0.42577255      -1.15196591      -0.23113069      -0.28075839
6
Properties=species:S:1:pos:R:3:forces:R:3 energy=-26135.57264771857 free_energy=-26135.57264771857 dipole="1.4396557552989915 0.17449473894211015 0.3067030740993283" pbc="F F F"
C        0.61957648      -0.44184187       0.22383488       1.68299512      -0.23513917      -0.17616168
Cl       1.94823379       0.77853760       0.33911430       0.19823262       0.03995541       0.25811067
H        0.69688500      -1.15646115       1.02316588       0.17943279      -0.14726086       0.51633574
H       -0.31898541       0.03097308       0.22131791      -0.85669723       0.74130516       0.05169861
H        0.78439543      -0.94118068      -0.71368631      -0.13536749      -0.18645417      -0.39197675
Cl      -2.19120491      -0.57007032      -0.43004588      -1.06859580      -0.21240638      -0.25800659
6
Properties=species:S:1:pos:R:3:forces:R:3 energy=-26135.67495607578 free_energy=-26135.67495607578 dipole="-0.6176832732748738 -0.47460142913714154 -1.3690772359164907" pbc="F F F"
C       -0.30089287      -0.45576367      -0.32921895      -0.68051001       0.47164979       1.03024553
Cl      -0.77092941      -0.36170571      -2.02736849      -0.55587474      -0.03391766      -1.02214477
H        0.43984558      -1.22565083      -0.26597342       0.47241517      -0.27619574       0.25228182
H        0.10554264       0.51264268      -0.01342849      -0.14108304      -0.54737735      -0.16570301
H       -1.16897079      -0.70920586       0.32744836       0.64236354       0.24207473      -0.73379706
Cl       0.89060770       0.55656520       2.13754671       0.26268908       0.14376623       0.63911749
6
Properties=species:S:1:pos:R:3:forces:R:3 energy=-26135.4708746727 free_energy=-26135.4708746727 dipole="-0.1526625171000546 0.8647632324373222 -1.2238331239537366" pbc="F F F"
C        0.29862913      -0.00777606      -0.96704485       0.15106245      -0.11710338      -1.09810817
Cl      -0.58029578       1.49296917      -1.22563522      -0.85201535       0.63691861      -0.64793842
H        1.22751653       0.35201887      -0.63612827       1.58151344       0.00638822       0.25249937
H       -0.09370254      -0.52152117      -0.12926551      -0.74239882      -0.56664112       0.57101824
H        0.40011717      -0.65755251      -1.85128792      -0.27001514       0.54800926       0.10127396
Cl       0.43549924      -1.46681770       1.62768856       0.13185342      -0.50757158       0.82125501
6
Properties=species:S:1:pos:R:3:forces:R:3 energy=-26135.647749344538 free_energy=-26135.647749344538 dipole="-0.9528008389059943 0.07165241097570796 -1.2155124176963492" pbc="F F F"
C       -0.67386345      -0.18266547      -0.23247323      -0.43239201       1.39951417       0.69328932
Cl      -1.02080325       0.32888347      -1.94084991      -0.05623988       0.04811857       0.36314596
H        0.23236056       0.27624503       0.21038761      -0.45164797      -0.19615840      -0.76949610
H       -1.51169906       0.06190830       0.45037524       0.21082453       0.14114607      -0.71343745
H       -0.58006359      -1.22990311      -0.23507368       0.34940512      -1.32349717      -0.14564782
Cl       1.30198947      -0.24163724       2.00751116       0.38005021      -0.06912324       0.57214608
6
Properties=species:S:1:pos:R:3:forces:R:3 energy=-26135.637457712106 free_energy=-26135.637457712106 dipole="0.16749391495014634 -0.8440998360508716 1.2097316398097322" pbc="F F F"
C       -0.29906216      -0.00885909       0.90926126       0.09655042      -0.49421295      -0.48768192
Cl       0.61039883      -1.54601650       1.31042142      -0.26724093       0.50666376      -0.01649096
H        0.18164884       0.83493960       1.38478079       0.23803355      -0.00313353       0.22405321
H       -0.32452319       0.17897158      -0.18514554       0.31358458      -0.38053780       0.65295925
H       -1.31540030      -0.12303754       1.25263306      -0.27290560      -0.15262753       0.34054793
Cl      -0.46760683       1.52368663      -1.68822180      -0.10802202       0.52384805      -0.71338751
6
Properties=species:S:1:pos:R:3:forces:R:3 energy=-26135.473304817668 free_energy=-26135.473304817668 dipole="1.4575333659951115 0.11673735732594541 0.155557667315315" pbc="F F F"
C        0.80621692      -0.22700964      -0.50437511       1.23764034       0.36956760      -0.96784631
Cl       1.85401102       0.44311921       0.82838435      -0.05438134       0.05045660      -0.36017357
H        1.30982138      -1.13787638      -0.83950144      -0.50509316      -0.51781606       0.70537822
H       -0.24676657      -0.26269016      -0.16093610       0.69129182      -0.26296204      -0.33241948
H        0.93232190       0.36327584      -1.44394266      -0.37253582       0.41658073       1.05756066
Cl      -2.18390697      -0.33671013      -0.58798986      -0.99692184      -0.05582683      -0.10249953
6
Properties=species:S:1:pos:R:3:forces:R:3 energy=-26135.374368544202 free_energy=-26135.374368544202 dipole="-0.8936331322889941 -0.05099070319373631 -0.9551920605429386" pbc="F F F"
C       -1.01474778      -0.46208814      -0.12923275      -0.30428121       0.70777619       0.34801426
Cl      -0.76019811       0.34721616      -1.71846489      -0.21815190      -0.20996315       0.25941132
H       -0.20403548      -0.20626227       0.58595234      -0.35217663       0.10913412      -0.87692734
H       -1.94593596      -0.14928791       0.33500764      -0.37598459       0.19559193      -0.39838346
H       -1.00577051      -1.52081628      -0.23353542      -0.05254399      -0.91578838      -0.52933794
Cl       1.19374179      -0.13730028       1.74270440       1.30313831       0.11324929       1.19722317
6
Properties=species:S:1:pos:R:3:forces:R:3 energy=-26135.508099445753 free_energy=-26135.508099445753 dipole="-1.3317199236399644 -0.6108898269524262 -0.23724347717394456" pbc="F F F"
C       -0.65846162      -0.32786724      -0.94218166      -0.02976012       1.84229943       0.84279786
Cl      -1.70468103      -0.76272093       0.47701478       0.21400782      -0.24849067      -0.71501668
H       -1.23987112      -0.11003580      -1.82355342      -0.63709026      -0.09222066      -0.13748968
H       -0.08050230       0.56829063      -0.60681557      -0.61341606      -0.66968874      -0.36195790
H        0.10837657      -1.02738918      -1.16303211       0.35051225      -1.13225686       0.20254831
Cl       1.96224028       0.88999035      -0.05561302       0.71574637       0.30035750       0.16911809
6
Properties=species:S:1:pos:R:3:forces:R:3 energy=-26135.61897799664 free_energy=-26135.61897799664 dipole="-1.1996412628290176 0.34869324501092386 -0.9475856577931041" pbc="F F F"
C       -0.42193605       0.01702003      -0.24590522       1.16642933       1.47661077      -0.28221409
Cl      -1.67027633       0.57163105      -1.41041802       0.06082832      -0.28920101      -0.09415964
H       -0.81792766      -0.09047284       0.71354336      -1.08152933      -0.04589644       1.39470289
H        0.10436907      -0.87841451      -0.44290440      -0.02950091      -1.15771279      -1.03547800
H        0.38911472       0.74652626      -0.14647560      -0.51007978       0.16277422      -0.32832408
Cl       1.82246006      -0.57107499       1.49020394       0.39385237      -0.14657475       0.34547293
6
Properties=species:S:1:pos:R:3:forces:R:3 energy=-26135.477667561554 free_energy=-26135.477667561554 dipole="-1.3043921287315206 0.27239254035926874 -0.5006714581886695" pbc="F F F"
C       -1.26110635      -0.14432533       0.40258329       0.58212684      -0.49915874      -0.84724631
Cl      -1.05522096       0.59689237      -1.24657499       0.00740670      -0.26230623       0.37093937
H       -0.93524248       0.58827014       1.11306195      -0.26923100       0.49971518       0.37636641
H       -2.29450026      -0.43684992       0.43048941      -0.53013272      -0.03617835       0.35996419
H       -0.53250438      -0.96663674       0.55080192      -0.59148031       0.40102374      -0.53124125
Cl       1.58948030      -0.52481254       1.05062193       0.80131048      -0.10309559       0.27121760
6
Properties=species:S:1:pos:R:3:forces:R:3 energy=-26135.434908461324 free_energy=-26135.434908461324 dipole="0.44757389731562963 -1.2011072424554428 0.6988844488854615" pbc="F F F"
C       -0.06298908      -0.51374156       0.11052698      -0.30575252      -0.99804597      -0.83791217
Cl       0.85379438      -1.64471680       1.11255742       0.68701911      -0.72072279       0.26052315
H       -1.10240727      -0.75259861       0.25459255      -0.32307277      -0.05010189      -0.34732647
H        0.10767976       0.45537553       0.40860866       0.38414684       1.92332400       1.43102887
H        0.24761768      -0.40866580      -0.93074587      -0.03427786      -1.06472496       0.07621767
Cl      -0.81120909       1.83885181      -1.14239817      -0.40806281       0.91027162      -0.58253105
6
Properties=species:S:1:pos:R:3:forces:R:3 energy=-26135.471576721724 free_energy=-26135.471576721724 dipole="1.140316375763518 0.7472930969690484 -0.12537297006203574" pbc="F F F"
C        0.33174118       1.27957092      -0.07467471       0.31950607      -0.06808996       1.94292152
Cl       1.75368828       0.16513119      -0.15219559      -0.07960957       0.46956243      -0.20307341
H       -0.46193105       0.66906540       0.40901616       0.48661443       0.53404761      -0.22100327
H        0.60212731       2.16769962       0.54237012       0.01245824      -0.52085306      -0.64057645
H       -0.03168364       1.51877623      -1.04483332       0.09684648       0.26312960      -0.92721666
Cl      -1.86917274      -0.72251658       0.18015363      -0.83581566      -0.67779663       0.04894826
6
Properties=species:S:1:pos:R:3:forces:R:3 energy=-26135.511741214963 free_energy=-26135.511741214963 dipole="-0.669383388791206 1.2686015879355381 -0.3577128573065687" pbc="F F F"
C       -0.69951167       0.23981310      -0.41226001       1.97891530       1.22915488      -0.50959904
Cl      -0.53875928       2.14330933      -0.22649025      -0.44969857      -1.40146100      -0.05729694
H       -0.10647505       0.03631411      -1.33576539      -1.20136084       0.10695994       0.40431417
H       -0.06282033      -0.24273610       0.33353108      -0.44569215       0.39794392       0.35624243
H       -1.73362981      -0.07003593      -0.35560586      -0.13052500       0.21410491      -0.28387413
Cl       0.82987305      -2.21670074       0.40477961       0.24836126      -0.54670265       0.09021351
6
Properties=species:S:1:pos:R:3:forces:R:3 energy=-26135.355268975592 free_energy=-26135.355268975592 dipole="-0.941697627856982 0.5909835884315718 -0.7858301505686791" pbc="F F F"
C       -0.28294625       1.19543395      -0.44494826       0.12535458       0.34189960      -0.07324452
Cl      -1.43588204      -0.02297827      -0.98755185      -0.28083744       0.11497054      -0.21370838
H        0.38552193       0.73799112       0.26141456      -0.15279843      -0.28635979       0.66044378
H        0.38378708       1.50387048      -1.20828463       0.34567808       0.11318958      -1.44160973
H       -0.73135289       2.08261453      -0.05823076      -0.92939980       0.46818204       0.35552955
Cl       1.53066928      -0.50501691       1.16688655       0.89200300      -0.75188197       0.71258931
6
Properties=species:S:1:pos:R:3:forces:R:3 energy=-26135.339015710233 free_energy=-26135.339015710233 dipole="0.5253884028090513 0.5772300843419307 1.1482953139778174" pbc="F F F"
C        0.63576678      -0.41497152       1.12782495       1.11324745       1.73477971       2.31410157
Cl       0.30148335       1.43224267       0.97025249       0.08359212      -1.35803746       0.47523033
H        0.45801204      -0.77310910       2.18613681       0.40587755       0.83414625      -0.93674953
H       -0.01232367      -0.89728928       0.46304583      -0.87176753      -0.51851750      -1.12231805
H        1.68236411      -0.47618086       0.80884673      -0.33246478      -0.31286708       0.22506284
Cl      -0.57740075      -1.23060728      -1.45070381      -0.39848481      -0.37950392      -0.95532717
6
Properties=species:S:1:pos:R:3:forces:R:3 energy=-26135.57523302931 free_energy=-26135.57523302931 dipole="1.3009024532119637 -0.1260081562848374 0.7376574128606248" pbc="F F F"
C        0.44521752      -0.20181803       0.10092565      -0.46207047       3.36738155       1.27344705
Cl       1.86475946      -0.02550270       1.20388916       0.63205634      -0.01337198      -0.03037923
H       -0.29988653      -0.60885762       0.72918513      -0.88756301      -0.41778595       0.23826931
H        0.11789586       0.81355339      -0.27142330       0.52556867      -1.22650549       0.75135073
H        0.65296016      -0.77028317      -0.72338937       0.79139842      -1.69837486      -1.85224745
Cl      -2.02899768       0.10996387      -1.23053134      -0.59938993      -0.01134326      -0.38044040
6
Properties=species:S:1:pos:R:3:forces:R:3 energy=-26135.580258233058 free_energy=-26135.580258233058 dipole="-1.0841198684770628 0.503946741794784 -0.8536371873916739" pbc="F F F"
C       -0.26705799       0.76207386      -0.33853913      -0.03677278      -0.66869913      -1.25572346
Cl      -1.76510934       0.15706558      -1.25449981       0.48921074       0.05887378       0.43930799
H        0.19320099       0.02341038       0.34002863      -0.56239536      -0.15423812      -0.52458501
H        0.46576206       0.98335005      -1.15089859      -0.61406199       0.25852360       0.90007252
H       -0.62597032       1.57635961       0.25996464       0.07550162       0.75369824      -0.05516258
Cl       1.85465453      -0.48871732       1.38486670       0.64851777      -0.24815839       0.49609054
6
Properties=species:S:1:pos:R:3:forces:R:3 energy=-26135.6313801876 free_energy=-26135.6313801876 dipole="-0.2991624925276526 -0.006844849538327334 1.4624050793477132" pbc="F F F"
C       -0.15890301      -0.02920221       0.40830545       2.11242028       0.68839593       0.49890826
Cl      -0.38747197       0.00357452       2.21446189       0.27055984      -0.08491544       0.19289848
H       -1.01893531      -0.49338591       0.04388212      -1.14409332      -0.47582995      -0.88810449
H        0.02857712       0.98225859       0.07595084      -0.71910167       0.25692831       0.02889131
H        0.77154798      -0.51293320       0.06478055      -0.62075990      -0.39174192       0.77661267
Cl       0.44753247       0.00700378      -2.35805138       0.10097476       0.00716307      -0.60920623
6
Properties=species:S:1:pos:R:3:forces:R:3 energy=-26135.655877683424 free_energy=-26135.655877683424 dipole="0.5360309222329138 -1.2689247908545482 0.5731699811898922" pbc="F F F"
C       -0.10851605      -0.44620429       0.37768995      -0.12368681      -1.25448012       0.95536949
Cl       1.07486905      -1.82906783       0.63218902      -0.10213380      -0.16024311       0.16463871
H       -1.12985836      -0.88094746       0.35890037       0.79929815       0.51092336      -0.03155779
H        0.07182175       0.25827763       1.17502415      -0.27063920      -0.01339321       0.28587632
H        0.19434080       0.02100461      -0.51164597       0.01728619       0.31007884      -1.17658771
Cl      -1.01354347       1.99735664      -0.78922402      -0.32012454       0.60711424      -0.19773902
6
Properties=species:S:1:pos:R:3:forces:R:3 energy=-26135.644147139 free_energy=-26135.644147139 dipole="-1.2418059648514925 0.35716894303986785 -0.9277037111521007" pbc="F F F"
C       -0.63397478       0.34375206       0.00401542       0.41569837       1.77422715      -1.00242020
Cl      -1.53980172       0.24282622      -1.63820994       0.33905507      -0.28534283       0.94453605
H       -0.62675513      -0.56051915       0.59367879      -0.18468326      -0.35645329      -0.39789238
H        0.41139914       0.65783833      -0.24084602      -1.07761579      -0.57423455       0.24898091
H       -1.14085987       1.17560320       0.52272465       0.20889148      -0.49291061      -0.09614133
Cl       1.79316524      -0.39548946       1.61195349       0.29865413      -0.06528587       0.30293694
6
Properties=species:S:1:pos:R:3:forces:R:3 energy=-26135.566147835692 free_energy=-26135.566147835692 dipole="1.1875440733540743 0.7157696004234222 0.4897179286179055" pbc="F F F"
C        0.57925967       0.01760046       0.79479405       0.17377220      -0.86780454      -0.83503275
Cl       1.59048567       1.29459654       0.11034522       0.73281091       0.62205967      -0.44772756
H        0.39289601       0.34221193       1.79279202      -0.56024656      -0.01434105       0.76288906
H       -0.31347569      -0.14138313       0.13818630       0.60115588       0.30884984       0.86252829
H        1.14547383      -0.93054553       0.79519084      -0.13110131       0.46097946       0.03679599
Cl      -1.82157681      -1.27981078      -0.45715058      -0.81639112      -0.50974337      -0.37945304
6
Properties=species:S:1:pos:R:3:forces:R:3 energy=-26135.435016692354 free_energy=-26135.435016692354 dipole="-0.5506880689068706 0.32251164952809275 -1.2347967195333998" pbc="F F F"
C        0.25030387       0.62697613      -0.76690810      -0.57719940       0.11739597      -0.51903811
Cl      -1.26852005      -0.02434657      -1.56341186       0.45482880       0.08518230      -0.17898785
H        1.03746475       0.83692422      -1.53693866      -0.96533526       0.15141799       0.66631299
H       -0.13853942       1.44365231      -0.14280229       0.60686952       0.20134627      -0.66001219
H        0.57823303      -0.08741269      -0.01341575       0.04905212      -0.29562507      -0.47215283
Cl       1.14171115      -0.25044383       1.87139593       0.43178422      -0.25971746       1.16387799
6
Properties=species:S:1:pos:R:3:forces:R:3 energy=-26135.299195945117 free_energy=-26135.299195945117 dipole="-0.8585406693689346 0.6055763760440027 -0.635235167989411" pbc="F F F"
C       -0.42220642       1.20147245      -0.08541347       0.14859446      -1.70908217      -0.05118552
Cl      -1.32213053       0.04583418      -1.20626232       0.12361597       0.75557827       0.25618041
H       -0.08324673       2.05003379      -0.62482640      -0.05890998       0.89213505      -0.77657221
H       -1.09272850       1.45202721       0.73232583      -0.03459231       0.00979121      -0.02074127
H        0.46745128       0.56411662       0.26301545      -1.32082479       1.07642603      -0.24573363
Cl       1.48532696      -0.56853073       1.22466633       1.14211666      -1.02484839       0.83805221
6
Properties=species:S:1:pos:R:3:forces:R:3 energy=-26135.478930460322 free_energy=-26135.478930460322 dipole="1.304510328399158 -0.151724499693318 0.7616569302403795" pbc="F F F"
C        0.46070807      -0.33200571       0.11718000      -0.42783412       3.54643541       0.99224351
Cl       1.83784726       0.05009433       1.21130167       0.58705846      -0.31014940      -0.21885098
H       -0.39405866      -0.01029137       0.69004807      -0.25114673      -0.27339598      -0.06166891
H        0.43156667       0.25989661      -0.78637138       0.57501401       0.49853595       0.07738309
H        0.38027838      -1.28861114      -0.19342339       0.15727771      -3.46517982      -0.37453422
Cl      -2.00582169       0.09193779      -1.24276526      -0.64036932       0.00375384      -0.41457249
6
Properties=species:S:1:pos:R:3:forces:R:3 energy=-26135.471099171424 free_energy=-26135.471099171424 dipole="-0.6534760233857102 0.2617899515893609 -1.3396230117096102" pbc="F F F"
C        0.11315901       0.33023803      -0.61015900       2.20034565       0.21691480      -0.92418844
Cl      -1.23461380       0.12659640      -1.69406173      -1.18103517       0.11953846      -1.00958625
H        1.05639116       0.44015608      -1.21867769      -0.92659419      -0.15422536       0.42034867
H        0.04421798       1.23220874      -0.01293040      -0.45196272      -0.21943756       0.19794357
H        0.22280286      -0.56623644      -0.02266813      -0.20946839       0.18206348       0.23413906
Cl       1.15864336      -0.26993819       1.93645750       0.56871483      -0.14485382       1.08134338
6
Properties=species:S:1:pos:R:3:forces:R:3 energy=-26135.499983961305 free_energy=-26135.499983961305 dipole="1.242390082827589 0.542651548803581 -0.2090730241796392" pbc="F F F"
C        0.42218061      -0.02807834      -0.12166837       1.27739990      -1.83448681      -0.62656494
Cl       1.88005214       1.07705997      -0.25159690      -0.09354326       0.10720096       0.08646823
H       -0.17857636       0.05670078      -1.03525201       0.28413686       0.33133083       0.55647623
H        0.85526741      -1.08001824      -0.08991103      -0.57383902       1.36612861      -0.06334993
H       -0.15285111       0.10261683       0.78435366       0.25415233       0.66093389      -0.09058735
Cl      -2.03798844      -1.04136702       0.30251071      -1.14830681      -0.63110749       0.13755775
6
Properties=species:S:1:pos:R:3:forces:R:3 energy=-26135.471547848538 free_energy=-26135.471547848538 dipole="-0.17034688021653502 1.0466390319518064 -1.0189334791290063" pbc="F F F"
C       -0.00411992       0.03161821      -0.78613360      -0.10261389      -0.50451618      -0.75055875
Cl      -0.30714309       1.81830949      -1.00300750       0.09467579      -0.46479264      -0.21846433
H       -0.73503777      -0.39762655      -0.08324933       0.62716150       0.67350986      -0.21740849
H       -0.09810269      -0.52919169      -1.73551499      -0.22087344       0.71769004       0.03230330
H        1.02971560      -0.14448364      -0.46690142      -0.57851268       0.47461420       0.34516860
Cl       0.30294948      -1.79856038       1.33435310       0.18016271      -0.89650528       0.80895968
6
Properties=species:S:1:pos:R:3:forces:R:3 energy=-26135.485255890784 free_energy=-26135.485255890784 dipole="-0.8637072672513001 -0.8662077121228592 -0.420464937821665" pbc="F F F"
C       -0.07397220      -0.42582024      -0.10335191      -1.12592467      -2.19869000       1.14340625
Cl      -1.67567480      -1.24306047      -0.74641576       0.69473615       0.39381629      -0.10354965
H       -0.30902880       0.54242661       0.27141439      -0.54947421       0.26740513       0.14166295
H        0.20790356      -1.16042314       0.69413211      -0.07934912       1.05204074      -0.67125364
H        0.67928872      -0.36159774      -0.84984523       0.16530635      -0.15842581      -0.89774466
Cl       1.68429797       1.41518905       0.77814306       0.89470551       0.64385365       0.38747876
6
Properties=species:S:1:pos:R:3:forces:R:3 energy=-26135.50568503188 free_energy=-26135.50568503188 dipole="-0.9278982721495771 0.33935924059682493 -1.0461016138645423" pbc="F F F"
C       -0.16617096      -0.02862409      -0.45559274       0.20793140      -0.15502198      -0.40024157
Cl      -1.47944333       0.63343457      -1.42455772      -0.94726846       0.52119795      -0.73587429
H       -0.12265291      -1.08827161      -0.63087485       0.42037045      -0.26399628      -0.39379580
H        0.73969717       0.52769134      -0.62768929       0.24787694      -0.16981689      -0.48239857
H       -0.34237711       0.07245458       0.57330441      -0.80350971       0.42189981       1.14948755
Cl       1.52793459      -0.60985672       1.59840444       0.87459938      -0.35426261       0.86282267
6
Properties=species:S:1:pos:R:3:forces:R:3 energy=-26134.937986426845 free_energy=-26134.937986426845 dipole="-0.8136012176468557 -0.040698871094846066 -0.8438483107142096" pbc="F F F"
C       -0.94805609      -0.45317264      -0.08809853      -2.23834083      -0.91008434      -1.40212902
Cl      -0.70535501       0.34914681      -1.65862637      -0.00101234       0.04882217      -0.80711196
H       -0.03772964      -0.30393427       0.49027078      -0.60265033      -0.31493577      -0.37557661
H       -1.82125598       0.02492942       0.32051403      -0.22319213       0.52288483       0.56104983
H       -1.28519765      -1.50015911      -0.23191879       0.64656749       0.31061863      -0.24004153
Cl       1.11597386      -0.14501554       1.67201578       2.41862813       0.34269448       2.26380927
6
Properties=species:S:1:pos:R:3:forces:R:3 energy=-26135.598480547837 free_energy=-26135.598480547837 dipole="0.4673779829385796 -0.9002283615286175 0.8791599075046952" pbc="F F F"
C       -0.00528554      -0.20924420       0.35467853       0.13468489      -1.69139903       0.17630799
Cl       0.97195850      -1.55052856       1.33925044      -0.39803388       0.93907075      -0.44516233
H       -1.02698638      -0.47561324       0.55618196      -0.34905942      -0.17898718      -0.11940384
H        0.16220666       0.76961890       0.73603783       0.75017385       0.45473601       0.34929055
H        0.23764738      -0.32745904      -0.69845846       0.21622675      -0.03258463       0.45039079
Cl      -0.95233554       1.62237491      -1.47630418      -0.35399218       0.50916407      -0.41142316
6
Properties=species:S:1:pos:R:3:forces:R:3 energy=-26135.372057484044 free_energy=-26135.372057484044 dipole="1.3630231570509972 0.2540354988146182 0.16057738465440766" pbc="F F F"
C        0.57342041      -0.25690046       0.46516378      -0.21226733       1.91527828      -1.84936740
Cl       1.94315450       0.75269871      -0.19680677       0.43085738       0.04272065       0.47816643
H        0.23632472       0.09220419       1.41295941      -0.16711588       0.76416198       0.54803666
H       -0.20830144      -0.12339915      -0.31475410       0.74788029      -0.49276111       1.04197275
H        0.92025923      -1.22747189       0.58816659       0.63770868      -1.91154386      -0.16900368
Cl      -2.16440192      -0.62986747      -0.00874880      -1.43706314      -0.31785595      -0.04980476
6
Properties=species:S:1:pos:R:3:forces:R:3 energy=-26135.595494695997 free_energy=-26135.595494695997 dipole="-0.8910910379959004 -1.052095845433407 0.46396864339889016" pbc="F F F"
C       -0.16472025      -0.58110846      -0.11903656      -0.15457049      -0.10563126       0.70802957
Cl      -1.43437536      -1.32277794       0.97700713       0.27681311      -0.10914099      -0.34639137
H       -0.61953588       0.16000347      -0.72457075      -0.75886206       0.60799065      -0.29595109
H        0.57395036      -0.05482770       0.47538172      -0.11766668      -0.41896936       0.18562248
H        0.27397611      -1.30014875      -0.78916683       0.14050991      -0.64875806       0.15150990
Cl       1.48369094       1.55364470      -0.90715069       0.61377621       0.67450902      -0.40281949
6
Properties=species:S:1:pos:R:3:forces:R:3 energy=-26135.51319175052 free_energy=-26135.51319175052 dipole="-0.27629301350150015 -0.20374323439566225 1.4085575362520524" pbc="F F F"
C       -0.24587957      -0.28437053       0.36642852      -1.49914172      -0.14686647       0.04050660
Cl      -0.23571832      -0.08986244       2.14036338       0.05286597      -0.43845457       0.72827033
H        0.68445119      -0.52002856      -0.05487636       1.50173685      -0.12597666       0.11677040
H       -0.93376831      -1.05756705       0.00274723      -0.08857515       0.18663873       0.59895542
H       -0.55945773       0.66587726      -0.00055026      -0.12625831       0.41565769      -0.32014150
Cl       0.34202310       0.21213569      -2.26301703       0.15937237       0.10900128      -1.16436125
6
Properties=species:S:1:pos:R:3:forces:R:3 energy=-26135.534623537445 free_energy=-26135.534623537445 dipole="-0.8601398434284357 -1.0641959088697808 0.38999814096002905" pbc="F F F"
C       -0.25282969      -0.48322438      -0.20713970      -0.57950542      -2.29266940       0.13678650
Cl      -1.34967952      -1.45132062       0.95522557       0.42395424       0.43171714      -0.22910833
H        0.73724314      -0.38815574       0.15475160       0.66795667      -0.22529895       0.92504270
H       -0.22563921      -1.12236241      -1.08683127      -0.18478877       0.41168092      -0.24848357
H       -0.61347639       0.49193891      -0.33579809      -0.93759143       0.97083901      -0.22133140
Cl       1.43823875       1.64400711      -0.84899212       0.60997470       0.70373128      -0.36290590
6
Properties=species:S:1:pos:R:3:forces:R:3 energy=-26135.32694661023 free_energy=-26135.32694661023 dipole="-0.7613083749703886 0.2380828855825559 -1.1817938655057347" pbc="F F F"
C       -0.39541229       0.67748702      -0.33162719      -0.19951227       1.94826580      -1.11994714
Cl      -0.91545980      -0.24455209      -1.74190996      -0.18733167      -0.35559832      -1.02456293
H       -0.92558333       0.27608278       0.47532049      -0.42247239      -0.58773580       1.17876632
H        0.67325261       0.60442929      -0.16040199      -0.28839896      -0.13900822      -0.31772447
H       -0.71514011       1.73498141      -0.45499751       0.23379956      -0.50257336      -0.15559190
Cl       1.07694098      -0.05936086       1.85825337       0.86391573      -0.36335009       1.43906013
6
Properties=species:S:1:pos:R:3:forces:R:3 energy=-26135.42597091405 free_energy=-26135.42597091405 dipole="-1.0146487111463371 0.3740144274541247 -0.7973985311403972" pbc="F F F"
C       -0.56284579       0.25676364       0.02723486      -1.02535130      -1.18741508      -0.92053121
Cl      -1.38747952       0.47332267      -1.63554642       0.53766975      -0.09906168       0.72086039
H       -1.18068544      -0.43486003       0.58326764      -0.46329075      -0.04379626       0.02049175
H        0.42291758      -0.21017070       0.07453592      -0.03166812       0.36564994      -1.15737104
H       -0.55531146       1.19028001       0.50951949       0.04329083       1.31752013       0.37981493
Cl       1.61551689      -0.57582195       1.59312668       0.93934959      -0.35289705       0.95673519
6
Properties=species:S:1:pos:R:3:forces:R:3 energy=-26135.553039211954 free_energy=-26135.553039211954 dipole="0.39642754828730464 -1.1268678238000718 -0.7267270713060505" pbc="F F F"
C        0.13787772      -0.25385715      -0.26267201       0.73847252       1.15204633      -1.97029540
Cl       0.60053631      -1.82761152      -1.04907465       0.08246968      -0.43582671      -0.02837555
H       -0.28759289       0.37483213      -1.09805798       0.89694193      -0.53649487       0.97246988
H       -0.67099293      -0.37686369       0.40215204      -0.42867272      -0.62244430       0.94655215
H        1.04959542       0.18959507       0.19678744      -0.98737770      -0.46243185      -0.42649617
Cl      -0.64983918       1.90828893       1.15226407      -0.30183372       0.90515140       0.50614509
6
Properties=species:S:1:pos:R:3:forces:R:3 energy=-26135.560446300347 free_energy=-26135.560446300347 dipole="0.4746066378284251 -0.11863844815116165 1.367488027851396" pbc="F F F"
C        0.06474207      -0.07919602       0.40862959      -1.26950832      -0.90385113      -0.43179393
Cl       0.80574862      -0.13657087       2.04032337       0.09871887      -0.17266248       0.15606161
H       -0.99549484      -0.38275877       0.40717524       0.45376052       0.01423964       0.67051768
H        0.03835221       0.91432428       0.03345094       0.49989352       0.81019298      -0.04074787
H        0.49853281      -0.74058235      -0.34422246       0.61618010       0.17721317       0.62914087
Cl      -0.81464391       0.16934696      -2.18151448      -0.39904470       0.07486782      -0.98317835
6
Properties=species:S:1:pos:R:3:forces:R:3 energy=-26135.56228874588 free_energy=-26135.56228874588 dipole="-1.0160896781535502 -0.26613651000737626 -0.8271573074155011" pbc="F F F"
C       -0.18753479      -0.34678991      -0.29577819      -1.11793576       0.04603585      -0.84988791
Cl      -1.82172481      -0.11755131      -1.32377744       1.21873087      -0.25043678       0.67594753
H        0.57985625       0.29805062      -0.69123449      -0.25005939       0.19227039      -0.31065600
H       -0.39677295      -0.10487375       0.72074894      -0.51044057       0.41302514       0.34002914
H        0.08512036      -1.38384866      -0.35044464      -0.02023197      -0.44215515      -0.34501163
Cl       1.87763824       0.26890507       1.43311706       0.67993682       0.04126055       0.48957887
6
Properties=species:S:1:pos:R:3:forces:R:3 energy=-26135.413865289782 free_energy=-26135.413865289782 dipole="1.2510544314737446 0.5760979398630304 -0.3163246111842048" pbc="F F F"
C        0.38082107       0.02388175      -0.32209288       3.54304830      -2.05152232      -1.48601096
Cl       1.89789240       1.08022556      -0.20786468      -0.34573491       0.03418491      -0.12995866
H        0.66614290      -0.91197340       0.18391997      -0.61577011       0.84119520       0.29346530
H       -0.47244825       0.50820437      -0.06285372      -1.87338309       1.54739856       1.53846350
H        0.25675531      -0.25875124      -1.36183249       0.21545812       0.16671619      -0.34026385
Cl      -2.03972867      -1.06947869       0.35227511      -0.92361831      -0.53797253       0.12430468
6
Properties=species:S:1:pos:R:3:forces:R:3 energy=-26135.47160954976 free_energy=-26135.47160954976 dipole="-1.1337127077349178 -0.7491264785118187 -0.4952632274084162" pbc="F F F"
C       -0.50988824       0.06216148      -0.37019973       0.07866026      -0.40781147      -1.96604237
Cl      -1.52816901      -1.45352400      -0.54811670       0.04760095       0.10985513      -0.61418029
H       -0.54058788       0.78534153      -1.22802559      -0.19876121      -1.18079147       0.39087443
H       -0.98268866       0.51074162       0.42917266      -0.49818984       1.09996145       1.84782969
H        0.51288930      -0.20266422      -0.15113028      -0.14565033      -0.25122902       0.00513954
Cl       1.72965669       1.40137202       0.70055822       0.71634017       0.63001537       0.33637900
6
Properties=species:S:1:pos:R:3:forces:R:3 energy=-26135.255361223535 free_energy=-26135.255361223535 dipole="-0.48301196005095903 -0.3932109123330824 -1.117385649767015" pbc="F F F"
C       -0.20177860      -0.38228468      -0.20669148      -0.59611976      -0.82814269      -0.53375046
Cl      -0.71107627      -0.33045210      -1.93884893      -0.37955953       0.27549776      -1.16735552
H       -0.66482554       0.42856790       0.36282507       0.06135278      -0.37711621      -0.72293942
H       -0.61309091      -1.37485736       0.07069614       0.74394433       0.70944197       0.47417238
H        0.88734571      -0.28800652      -0.20744542      -0.63260580      -0.25887088       0.03678008
Cl       0.79054758       0.49507246       2.00245081       0.80298798       0.47919006       1.91309294
6
Properties=species:S:1:pos:R:3:forces:R:3 energy=-26135.52588393548 free_energy=-26135.52588393548 dipole="-0.966517865752157 0.03468442389818346 -1.1056480536694977" pbc="F F F"
C       -0.66671678      -0.23521267      -0.12960438      -0.19542599      -0.45340484      -0.93453543
Cl      -1.03771153       0.30079810      -1.89857240      -0.13939424      -0.24368237       0.83181134
H       -0.69431704       0.64009715       0.50025799       0.57538433       0.34518225      -0.27250000
H       -1.51169069      -0.84967287       0.23678534       0.61455408      -0.18041781      -0.61501650
H        0.33554263      -0.72876940      -0.18806394      -1.31900325       0.57852202       0.32266100
Cl       1.31679091      -0.19442317       1.92687443       0.46388508      -0.04619924       0.66757959
6
Properties=species:S:1:pos:R:3:forces:R:3 energy=-26135.629695897336 free_energy=-26135.629695897336 dipole="0.5568954133678596 -1.1988069609804883 0.47830315496098386" pbc="F F F"
C        0.01042856      -0.36004095       0.28008675       0.21514052       0.07023975       0.46735027
Cl       1.02880172      -1.84953873       0.60497327       0.00348008      -0.07364305       0.09586279
H       -0.84373700      -0.67029348      -0.30689806      -0.20868669      -0.15779300       0.31255405
H       -0.25256093       0.10179699       1.26199786       0.21572226      -0.46867091      -1.03333057
H        0.56252996       0.32097067      -0.36208179       0.26325033      -0.21527866       0.45126234
Cl      -1.01715770       1.97856434      -0.71673305      -0.48890651       0.84514586      -0.29369888
6
Properties=species:S:1:pos:R:3:forces:R:3 energy=-26135.683171786623 free_energy=-26135.683171786623 dipole="-1.0332548480458985 0.5145510837287903 -0.8871487810211228" pbc="F F F"
C       -0.17738256       0.28900225      -0.31873799      -0.03920639       1.19628230      -0.13341289
Cl      -1.70301745       0.62641696      -1.29148775      -0.05193626       0.17965076      -0.14407553
H        0.63591035       0.13005273      -1.05087794      -0.55335915      -0.05096689       0.69882289
H        0.00472398       1.17839424       0.33366202      -0.10211852      -0.83409608      -0.75585417
H       -0.41746549      -0.55327860       0.30118138       0.19204518      -0.30351864      -0.07829071
Cl       1.75677169      -0.74580809       1.41131074       0.55457515      -0.18735145       0.41281042
6
Properties=species:S:1:pos:R:3:forces:R:3 energy=-26135.473272808504 free_energy=-26135.473272808504 dipole="-0.8002868052269835 1.1445469332452056 0.45346601779158946" pbc="F F F"
C       -0.38365330       0.18303807       0.29782451      -1.94477092       0.19999272       0.37290302
Cl      -1.01433747       1.85047082       0.52163308      -0.36703309       0.33236644       0.46874345
H       -1.15309386      -0.56971433       0.33868327      -0.71437358       0.06281869       0.46834351
H       -0.09259557       0.14157254      -0.68487078       1.28904693       0.12496001      -1.97219253
H        0.35569618      -0.06837901       0.98945306       1.26635621       0.10531091       0.91193526
Cl       1.16963149      -1.89836863      -0.64083144       0.47077445      -0.82544877      -0.24973271
6
Properties=species:S:1:pos:R:3:forces:R:3 energy=-26135.27645425396 free_energy=-26135.27645425396 dipole="-0.5660320648455193 -0.9320253109269797 0.8091249933494041" pbc="F F F"
C        0.17803650      -1.06165059       0.18014165      -1.67863850      -2.33209200       0.76819490
Cl      -1.20878050      -0.65768558       1.30371695       0.36402835      -0.20709653      -0.20053134
H        0.83045050      -1.77056017       0.70165858      -0.43926138      -0.35621022      -0.22279486
H       -0.27909549      -1.40177132      -0.77578519       0.50435815      -0.02058473       0.85586560
H        0.71574661      -0.19782072      -0.01141937       0.65432943       1.61956706      -0.08935906
Cl       1.11242973       1.11321728      -1.36231923       0.59518396       1.29641642      -1.11137524
6
Properties=species:S:1:pos:R:3:forces:R:3 energy=-26135.327437622924 free_energy=-26135.327437622924 dipole="-1.2476878780282379 0.24800038142693373 -0.47563006761201004" pbc="F F F"
C       -1.23059733      -0.16277172       0.43218293       0.08637678      -0.40469183      -0.86108391
Cl      -0.95413681       0.58026176      -1.22179993      -0.52093810      -0.35692870       0.73167358
H       -0.70402513       0.45905016       1.13250464       0.11172933       0.08886484       0.13291235
H       -2.27891130      -0.23252049       0.66067857      -0.78302503       0.21247748      -0.30392813
H       -0.76524365      -1.15982121       0.42393716      -0.20538308       0.65516605      -0.05336908
Cl       1.47765924      -0.49857462       1.01232725       1.31124009      -0.19488783       0.35379518
6
Properties=species:S:1:pos:R:3:forces:R:3 energy=-26135.61119131692 free_energy=-26135.61119131692 dipole="-1.0533712598794727 0.42952318693298475 -0.8541271541584666" pbc="F F F"
C       -0.23349480       0.11501828      -0.31584841       0.49472850       0.91297664      -1.29616911
Cl      -1.70606209       0.65690248      -1.22931366      -0.48241860      -0.18074378      -0.01143063
H        0.48289947      -0.19070450      -1.07993236      -0.02772560       0.22523499       0.24392306
H        0.10119879       0.97485135       0.23796279       0.17593415       0.15931506      -0.00401523
H       -0.35474202      -0.68786018       0.35633139      -0.94130339      -0.83723235       0.52113413
Cl       1.77865207      -0.69861029       1.35013675       0.78078495      -0.27955057       0.54655777
6
Properties=species:S:1:pos:R:3:forces:R:3 energy=-26135.524733520964 free_energy=-26135.524733520964 dipole="-0.6592519333711668 0.23114675032952026 -1.185299412637368" pbc="F F F"
C       -0.06996054       0.17041214      -0.36907723       0.04878886       1.45074015      -0.72392755
Cl      -1.15523475       0.24748543      -1.79370098      -0.87198719       0.27893611      -0.97470477
H        0.25229339       1.19816626      -0.12272223      -0.19315067      -0.73418347      -0.14829887
H       -0.60348535      -0.27249919       0.42277910      -0.54768549      -0.38810613       0.63344056
H        0.72386293      -0.43720076      -0.71719722       0.84905184      -0.43916677       0.14630051
Cl       1.16834176      -0.31911291       1.93061111       0.71498264      -0.16821988       1.06719011
6
Properties=species:S:1:pos:R:3:forces:R:3 energy=-26135.67306261222 free_energy=-26135.67306261222 dipole="-0.12900114607455898 -0.7069448936196179 -1.2181666446403612" pbc="F F F"
C        0.04955063      -0.29628011      -0.29206581       0.00708108       0.89750853      -1.56388299
Cl      -0.31177796      -1.00728973      -1.99371766       0.22972220       0.26423326       0.29288709
H        0.35809415      -1.12954939       0.26172948       0.06188806      -1.06664546       1.00051664
H        0.88536503       0.41254726      -0.34015036      -0.52892888      -0.19731194      -0.37818119
H       -0.86580013       0.18217978       0.02739226       0.12555616      -0.16068655       0.06857059
Cl       0.28425094       1.12288131       2.09412498       0.10468138       0.26290215       0.58008985
6
Properties=species:S:1:pos:R:3:forces:R:3 energy=-26135.47819419385 free_energy=-26135.47819419385 dipole="0.043728911756142456 -0.8092611834546692 1.090620457018463" pbc="F F F"
C       -0.09342834      -0.54076831       0.15051640      -0.87689606      -0.64970670       0.88887430
Cl       0.22919358      -0.95007454       1.94557456      -0.10191777      -0.18543074      -0.56210149
H        0.17090591      -1.38526726      -0.48822931       0.76434735       0.24881372       0.28441437
H       -1.17694071      -0.47942795       0.02635201       0.14544134       0.37250543       0.40864705
H        0.36038574       0.41855918      -0.05618303       0.22362802      -0.42502781       0.10394532
Cl      -0.17917998       1.17441511      -1.98184106      -0.15460288       0.63884611      -1.12377955
6
Properties=species:S:1:pos:R:3:forces:R:3 energy=-26135.657327694866 free_energy=-26135.657327694866 dipole="-1.1416527233778486 0.32506229109149143 -0.8864494272989455" pbc="F F F"
C       -0.30850696       0.12491592      -0.26131170      -0.09724348       0.00055773       1.16029881
Cl      -1.70823668       0.45512486      -1.32419593      -0.18519449       0.21780174      -0.46686556
H        0.30255263       0.99071889      -0.03242654      -0.34632257       0.37893326      -0.37488108
H       -0.70249057      -0.23275285       0.69071881       0.00109808       0.00856701      -0.26916176
H        0.35790050      -0.61901727      -0.64649071      -0.05189341      -0.42183891      -0.58469501
Cl       1.81395885      -0.50139920       1.41239674       0.67955586      -0.18402083       0.53530460
6
Properties=species:S:1:pos:R:3:forces:R:3 energy=-26135.439173784995 free_energy=-26135.439173784995 dipole="-1.0096485617221365 -0.9889061649990981 -0.13905954117219876" pbc="F F F"
C       -0.25767510      -0.41167533       0.24679226       0.47110467      -1.41411067       1.37432162
Cl      -1.57589411      -1.36159422      -0.51872760      -0.35168274      -0.01624729      -0.04451227
H       -0.29628443       0.64218763       0.13237443      -0.49300436       0.58297844      -1.05534115
H       -0.29811273      -0.52396569       1.34315109      -0.19948370      -0.41963960      -0.36068505
H        0.70143786      -0.82593206      -0.08335154      -0.50376293       0.33181727      -0.16088020
Cl       1.66015472       1.52119941       0.39552497       1.07682907       0.93520186       0.24709705
6
Properties=species:S:1:pos:R:3:forces:R:3 energy=-26135.473815205634 free_energy=-26135.473815205634 dipole="0.24928781877922335 -0.783825161619118 -1.0176105223439893" pbc="F F F"
C        0.04397232      -0.15545472      -0.30866228       0.52850497       0.06196478       0.83664658
Cl       0.44606846      -1.33161107      -1.66210857       0.08073865       0.27943416      -0.16704870
H       -1.02073264       0.05185176      -0.31344004       0.09925703      -0.02191708      -0.44500403
H        0.24777952      -0.68849742       0.63272767       0.08530501       0.17599635      -0.68753506
H        0.63030825       0.80474299      -0.29108877      -0.47171082      -1.36802554      -0.68246942
Cl      -0.45691093       1.37950175       1.76588624      -0.32209484       0.87254732       1.14541062
6
Properties=species:S:1:pos:R:3:forces:R:3 energy=-26135.369989100032 free_energy=-26135.369989100032 dipole="0.7116039116009144 0.22578608623037014 -1.1229203872387572" pbc="F F F"
C        0.58632322       0.12164957      -0.14689484       0.38266727      -0.78460382      -0.34182562
Cl       0.71050268       0.29112769      -1.95256533       0.24044968      -0.26103793      -0.41229474
H        0.47462561      -0.93999692       0.20008831       0.19672753       1.10206951      -0.94378863
H        1.50542899       0.55408844       0.24771167      -0.21540046       0.08836333       0.15723124
H       -0.31464794       0.64597686       0.12469339       0.24149544       0.16634201      -0.01885997
Cl      -0.95651279      -0.33973930       1.98605703      -0.84593946      -0.31113311       1.55953772
6
Properties=species:S:1:pos:R:3:forces:R:3 energy=-26135.451361654617 free_energy=-26135.451361654617 dipole="-1.179607262937508 -0.6141163532287139 0.5844330534991526" pbc="F F F"
C       -0.35096142      -0.55555020      -0.05733515      -0.34464105      -1.51186406       0.99089690
Cl      -1.82159816      -0.57783052       1.17533450       1.23186632      -0.11346365      -1.05739331
H       -0.28779838       0.37003703      -0.52035999      -0.31367986       2.07385984      -0.20127354
H        0.62580924      -0.69463736       0.46288770      -1.21654323      -0.28622117      -0.22688410
H       -0.56550091      -1.23271544      -0.89821449       0.05978158      -0.38311336       0.83582933
Cl       1.94697778       0.81034075      -1.12873408       0.58321624       0.22080240      -0.34117529
6
Properties=species:S:1:pos:R:3:forces:R:3 energy=-26135.558613642454 free_energy=-26135.558613642454 dipole="-0.18597015948242568 -1.0161551627750032 -0.8223485206417164" pbc="F F F"
C       -0.05250618      -0.27985713      -0.19140038       0.27451311       0.89396780      -2.40076335
Cl      -0.30245511      -1.67057959      -1.39786668      -0.06526935      -0.16800430      -0.19173788
H       -0.01312820       0.68397422      -0.80726042       0.02173910      -1.73219718       1.12776857
H       -0.88054270      -0.32412934       0.45483552      -0.93272288       0.11303667       0.62733213
H        0.84972332      -0.52941425       0.31645351       0.56526960       0.14609041       0.16864130
Cl       0.32149462       1.77022105       1.46373887       0.13647041       0.74710660       0.66875921
6
Properties=species:S:1:pos:R:3:forces:R:3 energy=-26135.48256844083 free_energy=-26135.48256844083 dipole="-0.7702925673186216 0.14575301269014057 -1.0540190500450755" pbc="F F F"
C       -0.16021413      -0.08937122      -0.33446665       1.55888824       1.14758208      -2.16623058
Cl      -1.37310492       0.37850523      -1.66232836      -0.39507823      -0.06226766       0.14122271
H       -0.57007702      -0.09932312       0.65380003      -0.55209306      -0.00511188      -0.00700816
H        0.25753098      -1.03160753      -0.70518642      -0.28437519       0.15831563       0.58299816
H        0.63771763       0.70183849      -0.46548134      -1.13392526      -1.03018925       0.53165576
Cl       1.41814185      -0.33602392       1.79034759       0.80658350      -0.20832891       0.91736211
6
Properties=species:S:1:pos:R:3:forces:R:3 energy=-26135.53560981016 free_energy=-26135.53560981016 dipole="-1.0886317328596455 0.22831493680541498 -0.7945245379591923" pbc="F F F"
C       -0.49094970      -0.20744977      -0.11853269      -1.16957908      -0.00153887      -1.57829479
Cl      -1.52858027       0.65921394      -1.38989139      -0.03724194      -0.10040249      -0.16463486
H       -1.09664356      -1.05060875       0.17971468       0.20489829      -0.18169530       0.25700132
H        0.45748734      -0.44651952      -0.54772536       0.12625110      -0.27613184      -0.46882210
H       -0.33412748       0.51913757       0.61240634       0.02106428       0.83295257       1.22035188
Cl       1.72259626      -0.56111821       1.42310282       0.85460735      -0.27318407       0.73439855
6
Properties=species:S:1:pos:R:3:forces:R:3 energy=-26135.49799449056 free_energy=-26135.49799449056 dipole="-1.1775885614188895 0.31852231589030905 -0.736084469586274" pbc="F F F"
C       -0.40246210       0.08166177      -0.12106483       0.82781842       1.44113994       0.34927955
Cl      -1.77505765       0.47209850      -1.30014345       0.61857669      -0.34054165       0.04301596
H       -0.90130490      -0.16913863       0.79184320      -0.28391292      -0.69814808       0.35054269
H        0.40488312      -0.65447281      -0.37863935      -1.37242456       0.63081307      -0.41598631
H        0.10560848       1.04530016       0.15386444      -0.45286784      -0.86678275      -0.84078008
Cl       1.92253049      -0.50607034       1.32503780       0.66281021      -0.16648051       0.51392820
6
Properties=species:S:1:pos:R:3:forces:R:3 energy=-26135.338630736467 free_energy=-26135.338630736467 dipole="-0.7197918023161086 0.25229716120310575 -1.1283079504738747" pbc="F F F"
C       -0.35077981       0.64692387      -0.27292220      -2.93415332       0.13124023      -1.94472709
Cl      -0.97136402      -0.26489363      -1.85070393       0.52997349       0.49779995       0.74516371
H       -0.79854047       0.08688516       0.53829182       0.13648104       0.24885238      -0.15637249
H        0.68784781       0.66268548      -0.24891327       1.56920164      -0.43264796      -0.23145477
H       -0.75734085       1.65224516      -0.45443994       0.00756128      -0.28434907       0.45298208
Cl       1.11489559      -0.02258826       1.94786755       0.69093587      -0.16089554       1.13440856
6
Properties=species:S:1:pos:R:3:forces:R:3 energy=-26135.402498316136 free_energy=-26135.402498316136 dipole="0.4752201849367324 1.0813188387788275 0.6946552736146479" pbc="F F F"
C       -0.19122327       0.47693019       0.23712618       0.32943854      -0.40629791       1.59992837
Cl       1.07798019       1.49671853       1.03966046      -0.15278498       0.49639006       0.38803489
H        0.09507240       0.43135916      -0.76210240       0.60129609      -0.29884349      -1.37848381
H       -0.19863293      -0.50789017       0.71442420       0.36621911       0.56933907      -0.22695514
H       -1.18505960       0.86686295       0.27798362      -0.49736260       0.79016417       0.41739835
Cl      -0.97654968      -1.68078237      -1.12655102      -0.64680616      -1.15075190      -0.79992266
6
Properties=species:S:1:pos:R:3:forces:R:3 energy=-26135.24694093627 free_energy=-26135.24694093627 dipole="-1.174785100151372 0.09248848000267433 -0.46364649936347846" pbc="F F F"
C       -0.89994962      -0.50814370       0.17645222      -1.70178634       1.32095429      -1.55302273
Cl      -1.41032072       0.73545695      -1.17088151       0.29985377      -0.86174805       0.78959792
H       -1.38372394      -1.42360298      -0.08412830      -0.24262166      -0.67426431      -0.27869958
H        0.16972607      -0.51832393       0.28034503       0.25774085      -0.07737406      -0.59664099
H       -1.31095497      -0.09460635       1.06376444      -0.48892327       0.34664621       0.82577031
Cl       1.78703291      -0.50538249       1.07526999       1.87573666      -0.05421406       0.81299507
6
Properties=species:S:1:pos:R:3:forces:R:3 energy=-26135.255429739304 free_energy=-26135.255429739304 dipole="-0.6616836714612379 0.21206093016389888 -1.2816753903570706" pbc="F F F"
C       -0.05936045       0.38475095      -0.44800105       1.94764675       1.86429936      -0.14194576
Cl      -1.07063985      -0.02112300      -1.77903275      -1.05298187      -0.66238106      -2.36368363
H       -0.04498342       1.50466706      -0.41510398       0.18576203      -0.96703842       0.25601472
H       -0.56993887       0.00134457       0.38196753      -0.19014381      -0.34643507       1.12688461
H        1.00429633      -0.00198383      -0.48817227      -1.64273726       0.26963889      -0.25844684
Cl       1.07968046      -0.15200263       1.94564544       0.75245415      -0.15808370       1.38117690
6
Properties=species:S:1:pos:R:3:forces:R:3 energy=-26135.245502282185 free_energy=-26135.245502282185 dipole="-0.9795355727434837 -0.6388826150484114 -0.6349091080426411" pbc="F F F"
C       -0.49860216      -1.27744873      -0.06580496      -2.98478086      -0.09105551      -0.38593633
Cl      -1.17032207       0.10000697      -1.01932219       0.12064480      -0.03619015      -0.35679275
H       -0.85029742      -1.02533734       0.94173634       0.51136814      -0.60649993      -0.21211008
H       -1.01946663      -2.14023716      -0.51122089       0.21039423      -0.04276044       0.39781471
H        0.54534539      -1.30891100      -0.14174081       1.22096045       0.04839325      -0.08981604
Cl       1.37691515       0.46004150       1.03340677       0.92141324       0.72811278       0.64684049
6
Properties=species:S:1:pos:R:3:forces:R:3 energy=-26135.22152573972 free_energy=-26135.22152573972 dipole="-0.6293396909424046 -1.0788993574913077 -0.47032932648182973" pbc="F F F"
C       -0.60723807      -0.20461230      -0.93577410      -0.47246771      -2.76741804      -0.59122536
Cl      -0.51513077      -1.73752579       0.09332711      -0.27127503       0.64039472      -0.32627717
H        0.36648056       0.18990811      -0.93559382       1.07657081       0.11723160      -0.43680457
H       -0.99748095      -0.53965057      -1.88796900      -0.07207179      -0.04458284      -0.34190517
H       -1.20183579       0.52439338      -0.47971476      -1.08528607       0.65758098       0.85618664
Cl       0.77298790       1.80188545       0.31765417       0.82452978       1.39679357       0.84002563
6
Properties=species:S:1:pos:R:3:forces:R:3 energy=-26135.429113403658 free_energy=-26135.429113403658 dipole="-0.9923335838781866 0.58434932655172 -0.7641297557657877" pbc="F F F"
C       -0.32778367       0.84935561      -0.09592605      -1.21062893      -0.18173904      -1.39862328
Cl      -1.59245585       0.20622833      -1.40413822       0.84692888       0.79655436       1.15611908
H        0.28685216       1.59096756      -0.60074019      -0.01826773      -0.19169123      -0.08900510
H       -0.83058351       1.26500574       0.75789354      -0.75826302       0.34047234       0.05800263
H        0.20632723      -0.00844067       0.26956633       0.28548841      -0.34530028      -0.42833706
Cl       1.71310784      -0.57497087       1.42450590       0.85474239      -0.41829615       0.70184374
6
Properties=species:S:1:pos:R:3:forces:R:3 energy=-26135.4418250751 free_energy=-26135.4418250751 dipole="-0.6819613182990987 0.022067714167591828 -1.2696970461459618" pbc="F F F"
C       -0.01784036      -0.48550046      -0.67101660       0.87381858       1.66898374       0.27226788
Cl      -1.22895370       0.51706309      -1.58249654      -0.09872012      -0.36950826      -0.05409551
H        0.20575435      -1.38441999      -1.19055786      -0.15216975      -0.86918129      -0.72471421
H        0.91637558       0.14360079      -0.64695851      -1.19698103      -0.74667982       0.16441389
H       -0.33019027      -0.67696741       0.36817899      -0.10695259       0.33140626      -0.82247412
Cl       1.21247995      -0.29803700       1.85162694       0.68100491      -0.01502063       1.16460206
6
Properties=species:S:1:pos:R:3:forces:R:3 energy=-26135.497873604738 free_energy=-26135.497873604738 dipole="-0.7195470335140711 -0.0018357940616731284 -1.0349237110397904" pbc="F F F"
C       -0.27875988      -0.17819207      -0.22954801      -0.14221604      -0.81194808      -1.16487918
Cl      -1.19914259       0.25294863      -1.88125713       0.31997302      -0.15713985       1.03098995
H        0.18119076       0.70650834       0.20994148      -0.77379194      -0.02838804      -0.33900133
H       -0.96318896      -0.77308013       0.40822862       0.26150484       0.90330513      -0.46528277
H        0.51775130      -0.83994592      -0.58324319      -0.23348032       0.25971941       0.09296409
Cl       1.30110439      -0.16679815       1.95803836       0.56801043      -0.16554858       0.84520923
6
Properties=species:S:1:pos:R:3:forces:R:3 energy=-26135.633737977572 free_energy=-26135.633737977572 dipole="-1.0243119542747097 -0.9228599626983685 -0.5543037028903262" pbc="F F F"
C       -0.19724323      -0.31828877      -0.26242531       0.46402530      -0.30505644      -2.91477666
Cl      -1.65576461      -1.31629817      -0.69405664      -0.29718093      -0.08152459       0.18840911
H       -0.22489435       0.59131031      -0.90573968      -0.09236704      -0.69903443       0.91677755
H       -0.09312508      -0.13010292       0.75863815      -0.45866294       0.35961784       1.44688289
H        0.65402323      -0.93134341      -0.58483435      -0.19523062       0.28167277       0.13504328
Cl       1.71303955       1.43750729       0.80378250       0.57941624       0.44432484       0.22766383
6
Properties=species:S:1:pos:R:3:forces:R:3 energy=-26135.378333509736 free_energy=-26135.378333509736 dipole="0.9453343109223422 0.9270923791795967 -0.09260029514726649" pbc="F F F"
C        0.07947018       0.50856398      -0.31491819       1.46975151       1.06114732       0.13621511
Cl       1.77587685       1.21361430       0.18017254      -0.86906704      -0.30425467      -0.45473315
H       -0.57182411       0.69504104       0.50218529      -0.06350346      -0.27368767       0.85898449
H       -0.29384393       1.07220349      -1.13195696       0.01469762       0.79841392      -0.96065864
H        0.15342637      -0.51218623      -0.61699145       0.58704403      -0.39633189       0.39672870
Cl      -1.78255039      -1.42161037      -0.03802249      -1.13892266      -0.88528702       0.02346349
6
Properties=species:S:1:pos:R:3:forces:R:3 energy=-26135.32823140763 free_energy=-26135.32823140763 dipole="1.206835215864926 0.3642914571523501 0.6569752558456897" pbc="F F F"
C        0.41790638      -0.16317509       0.25836021       2.36884022      -0.59221660       2.26666374
Cl       1.79954983       0.87434550       0.94364359      -0.79587723      -0.13389466      -0.42512583
H        0.35919680      -0.19882401      -0.75882608       0.70654020       0.43993908      -2.79769527
H        0.64661525      -1.13576897       0.63650646       0.18194029      -0.72515465       0.15467213
H       -0.55066266       0.05335112       0.54413394      -1.56151384       1.40148892       1.29497239
Cl      -1.95408478      -0.78262793      -1.04317400      -0.89992963      -0.39016208      -0.49348715
6
Properties=species:S:1:pos:R:3:forces:R:3 energy=-26135.535172083913 free_energy=-26135.535172083913 dipole="0.5358652982328427 -1.0858411634073317 0.3577123223084088" pbc="F F F"
C        0.12279868      -0.34141517      -0.03655279       0.65200699       0.08519082       0.91508785
Cl       0.94855590      -1.83330188       0.77913582      -0.18096782       0.32397920      -0.04944277
H        0.20706484       0.56482579       0.60572378       0.09098309      -1.29629343      -0.21238206
H        0.72059095      -0.17801666      -0.93215644      -0.49212930      -0.15183651       0.01049460
H       -0.92436419      -0.61645015      -0.16842552       0.46576040       0.03706388      -0.18939249
Cl      -0.99025556       1.95550824      -0.75268018      -0.53565336       1.00189603      -0.47436512
6
Properties=species:S:1:pos:R:3:forces:R:3 energy=-26134.626605113088 free_energy=-26134.626605113088 dipole="-0.8828654836219216 -0.564638661873523 -0.5938223881532109" pbc="F F F"
C       -0.41194773      -1.21309390      -0.02098473      -3.54461011      -1.25912463      -1.48255372
Cl      -1.15060808       0.17677968      -1.04250724       0.95723118      -0.89291372       0.70716056
H       -0.23595758      -0.96402696       0.98537069       0.08393241       0.70534844       0.61545657
H       -1.31923168      -1.84500282      -0.01443318       0.41590022      -0.49254278      -0.37456120
H        0.44131868      -1.71146472      -0.45618269       0.06334955       0.39273062      -0.41728957
Cl       1.32185450       0.36277263       1.03498044       2.02419675       1.54650207       0.95178736
6
Properties=species:S:1:pos:R:3:forces:R:3 energy=-26135.362683040497 free_energy=-26135.362683040497 dipole="-0.7954556601868753 -0.8270630149158824 -0.478405952925908" pbc="F F F"
C        0.02525227      -0.41948090      -0.29076371      -1.24873027      -0.81459622       0.91631046
Cl      -1.68318966      -1.19735108      -0.63252438       0.71224836       0.27663824       0.04696215
H        0.09717977       0.51168521      -0.81538366      -0.55738112       0.28892831       0.00117302
H        0.15765493      -0.32234968       0.81077877      -0.62724044      -0.11962097      -1.25006552
H        0.73135466      -1.10436322      -0.69945772       0.48872457      -0.65611790      -0.24490478
Cl       1.64659209       1.36549588       0.75105916       1.23237891       1.02476854       0.53052467
6
Properties=species:S:1:pos:R:3:forces:R:3 energy=-26135.212928190762 free_energy=-26135.212928190762 dipole="-0.013756006568669949 0.5863415861434811 -0.8589985865179695" pbc="F F F"
C        0.13631295       0.13756115      -0.20610577      -1.41770302       0.05754466      -0.92898567
Cl      -0.19001349       1.21188060      -1.72256481       0.26544181       0.68634856      -0.43573276
H       -0.45048260      -0.72915489      -0.54237743       0.65471192       0.36685679       0.56294623
H        1.20528824      -0.03065353      -0.13995174      -0.22475886       0.21794207      -0.05715190
H       -0.34862969       0.63961248       0.64326149       0.55295133       0.00209116      -0.87925651
Cl       0.13227922      -1.25507072       1.79350745       0.16935681      -1.33078324       1.73818060
6
Properties=species:S:1:pos:R:3:forces:R:3 energy=-26135.18685033671 free_energy=-26135.18685033671 dipole="-0.6231990286308959 -0.6214887860958468 0.5244850824936569" pbc="F F F"
C       -0.13037766      -0.01681992       0.38085767      -1.29452104      -0.84942951      -0.53414567
Cl      -1.34042715      -1.51372107       0.73653231       0.29696501       0.29938567       0.37362207
H        0.33472397       0.28703724       1.29897170       0.00636904      -0.15822815       0.54412160
H        0.60788781      -0.46389491      -0.30264726      -1.15916539       0.29455360       0.38267701
H       -0.86671306       0.74642943       0.03843853       1.04453645      -0.95410153      -0.09361941
Cl       1.38244295       1.50322448      -0.89499557       1.10581592       1.36781991      -0.67265560
6
Properties=species:S:1:pos:R:3:forces:R:3 energy=-26135.150915764345 free_energy=-26135.150915764345 dipole="-0.0836778350248863 0.0049996668145843816 1.122270789403803" pbc="F F F"
C        0.09013947      -0.09056743       0.28164426      -1.15360039       0.22950565       0.90667400
Cl      -0.32187615       0.12641714       2.05948791      -0.23246363       0.05393682       1.02150130
H        0.86289993      -0.79930786       0.28405594       0.71552204      -1.26011440      -0.09857119
H       -0.82842008      -0.42168015      -0.23019469       0.73478470       0.52182689       0.71960904
H        0.53917305       0.83267065      -0.01197900      -0.47895596       0.57046080      -0.10725280
Cl       0.27502404      -0.08468994      -2.15610417       0.41471324      -0.11561575      -2.44196034
6
Properties=species:S:1:pos:R:3:forces:R:3 energy=-26135.207471732698 free_energy=-26135.207471732698 dipole="-0.47847011301680276 0.9729958631892609 0.5135283355254527" pbc="F F F"
C        0.04332241       0.44488175      -0.01211297      -1.18986196       1.58296757      -0.79110451
Cl      -1.04072656       1.49286886       1.08840315       0.38105360       0.00449693       0.18362824
H        0.82411004      -0.08643651       0.46318779       0.22393864      -0.11033318       1.40420620
H       -0.64143681      -0.27165691      -0.46927589       0.20963636       0.71038594       0.15242709
H        0.52634535       1.15998356      -0.70628317      -0.62904750      -0.50704682       0.14372355
Cl       1.00588774      -1.66640285      -1.06404323       1.00428086      -1.68047043      -1.09288057
6
Properties=species:S:1:pos:R:3:forces:R:3 energy=-26134.873726438636 free_energy=-26134.873726438636 dipole="-1.0723511366508303 0.17790542894204098 -0.47394453659433977" pbc="F F F"
C       -0.79897720      -0.19069027       0.33468677      -2.73914458      -1.54160001      -3.33965736
Cl      -1.27029106       0.63469708      -1.38107236      -0.23486863      -0.30617778       1.09461012
H       -1.68760850      -0.77440908       0.66150635       0.35815562       0.80419168       0.01002573
H       -0.05115880      -0.85731226      -0.03193790       0.09534699      -0.00311791       0.04927442
H       -0.44433744       0.58613861       0.91272911       0.41168610       1.38035880       1.05706188
Cl       1.60307201      -0.54035778       1.22382105       2.10882449      -0.33365477       1.12868522
6
Properties=species:S:1:pos:R:3:forces:R:3 energy=-26135.44441973725 free_energy=-26135.44441973725 dipole="-0.8845563482166972 0.38987865115835213 -0.7413193593751946" pbc="F F F"
C       -0.14333110       0.18203105      -0.24255117      -1.23519444      -0.36880454       0.32640995
Cl      -1.69869987       0.63192900      -1.28689989       1.05095478       0.02666938       0.59222204
H        0.63328639       0.92158467      -0.20956429      -0.19757438       0.78044371      -0.58160641
H       -0.44210617      -0.02189382       0.78862729      -0.54153607       0.26894407      -0.56292840
H        0.23928309      -0.72930974      -0.65038690      -0.07654334      -0.31295433      -0.51007209
Cl       1.73502266      -0.69844858       1.37110798       0.99989344      -0.39429829       0.73597490
6
Properties=species:S:1:pos:R:3:forces:R:3 energy=-26135.171906533014 free_energy=-26135.171906533014 dipole="-0.8009938796446631 0.18245633178580156 -0.7350720779101243" pbc="F F F"
C       -0.23830615       0.10966302      -0.10229971      -0.55785319      -1.35697281      -0.43535627
Cl      -1.47209004       0.27250196      -1.46377550      -0.68239572       0.09745465      -0.38214302
H       -0.37715522      -0.86925599       0.41523193      -0.54541394       1.18492548      -0.65973176
H        0.70221293       0.04221896      -0.60930601       0.09503362       0.32831506      -0.32780450
H       -0.32666636       0.97446218       0.53079218      -0.19756210       0.06657747       0.00549968
Cl       1.55287754      -0.31384941       1.48886182       1.88819133      -0.32029985       1.79953588
6
Properties=species:S:1:pos:R:3:forces:R:3 energy=-26135.267209911177 free_energy=-26135.267209911177 dipole="-0.12977551754563757 0.12942894616100906 0.9885934503724015" pbc="F F F"
C        0.09920550       0.16388451       0.24327359      -1.92638712       0.70481171       1.57485931
Cl      -0.44419899       0.07772556       2.09772965       0.20892753      -0.09438610       0.19118247
H       -0.73054320      -0.29832096      -0.25544664      -0.12675065       0.04857119       0.28286095
H        0.14996830       1.23565029       0.13368869       0.22142120      -0.06396888      -0.38992359
H        0.98446506      -0.38290882       0.15891444       1.19076811      -0.57698774       0.22909912
Cl       0.39910228      -0.14901676      -2.18121097       0.43202093      -0.01804018      -1.88807825
6
Properties=species:S:1:pos:R:3:forces:R:3 energy=-26135.248476423574 free_energy=-26135.248476423574 dipole="1.0142854082366648 -0.2895377793211583 0.0992877012360208" pbc="F F F"
C        0.21099022      -0.13468014       0.07570296       1.43367012      -0.38286097       0.73501598
Cl       2.09596826      -0.47593498       0.12739534      -0.24568411      -0.27945948       0.15146591
H       -0.29872618      -0.96284389      -0.32385236       0.15227198      -1.11723992      -1.04809861
H       -0.15842639      -0.09731836       1.08456311       0.57663869       0.70917083       0.38393983
H        0.17703773       0.72873996      -0.53371613      -0.05082055       0.62060573      -0.09772087
Cl      -2.15949005       0.53099046      -0.15949911      -1.86607614       0.44978382      -0.12460225
6
Properties=species:S:1:pos:R:3:forces:R:3 energy=-26135.288911213112 free_energy=-26135.288911213112 dipole="0.12562063928436432 -0.47748992071556146 0.9063169147018475" pbc="F F F"
C        0.17004501      -0.16287792       0.17074870      -0.27914887      -0.61117109       1.61319572
Cl       0.08710987      -0.93970641       1.94973941       0.20668991       0.19494368      -0.50992614
H        0.99102524       0.50896553       0.14024661       0.89048916       0.00805736       0.27873625
H        0.18406254      -0.98135438      -0.50834376       0.26230578      -0.57574158      -0.12341262
H       -0.71137688       0.40410182       0.06703477      -1.02120870       0.15401069       0.51309792
Cl      -0.15790905       0.99683364      -1.99903114      -0.05912728       0.82990093      -1.77169113
6
Properties=species:S:1:pos:R:3:forces:R:3 energy=-26135.486582792448 free_energy=-26135.486582792448 dipole="-0.8843277378407842 0.396450790808747 -0.7368977149444179" pbc="F F F"
C       -0.14355262       0.17076927      -0.24179979      -0.59750063       0.19463142       0.24892485
Cl      -1.65829353       0.64287519      -1.26693101       0.43149635       0.17217081      -0.07385490
H        0.77516943       0.11480332      -0.84934750      -0.88355109       0.31251296       0.10943301
H       -0.08146515       0.87805366       0.60762688      -0.08826948      -0.32533531      -0.96395272
H       -0.42200263      -0.80339391       0.13802082       0.08325848       0.07985309      -0.15450826
Cl       1.69920567      -0.70612169       1.35180511       1.05456637      -0.43383297       0.83395802
6
Properties=species:S:1:pos:R:3:forces:R:3 energy=-26135.340624886838 free_energy=-26135.340624886838 dipole="0.1222313592651957 -0.479355961488236 0.879975839495537" pbc="F F F"
C        0.14256556      -0.15537854       0.16867311       0.77561682      -0.88453852       1.72626056
Cl       0.10194550      -0.95001072       1.94696628       0.21501206      -0.04901509      -0.14131277
H        1.00667795       0.47919248       0.17776796      -0.03555122       0.25431239       0.16473731
H        0.22183375      -0.97678249      -0.48562376       0.24297197      -0.92370276      -0.47462173
H       -0.80852539       0.26007818       0.12875982      -1.14093309       0.91880017       0.16316813
Cl      -0.16219095       1.00940884      -1.99902281      -0.05711656       0.68414381      -1.43823150
6
Properties=species:S:1:pos:R:3:forces:R:3 energy=-26135.33199565575 free_energy=-26135.33199565575 dipole="-0.7263315732548876 -0.6946848159907821 0.5723055008942216" pbc="F F F"
C       -0.13164713      -0.13138116       0.24640236      -1.10696365      -1.59780514      -1.79422064
Cl      -1.42419066      -1.31748577       0.96108663       0.29665352       0.38376621      -0.02544235
H        0.72041032      -0.15877953       0.84916392       0.82682498       0.11909735       1.40630414
H        0.19709352      -0.55024270      -0.72426804      -0.81082557      -0.02869009       0.75454125
H       -0.55952317       0.83685964       0.06463319      -0.44177630       0.00169516       0.47682288
Cl       1.45861574       1.35836473      -1.04996065       1.23608702       1.12193650      -0.81800529
6
Properties=species:S:1:pos:R:3:forces:R:3 energy=-26135.370848727634 free_energy=-26135.370848727634 dipole="-0.867817216779865 0.13178293436024074 -0.816365151493453" pbc="F F F"
C       -0.18480175      -0.24156809      -0.34245116      -1.03036731      -0.54702848      -1.68893523
Cl      -1.61227733       0.55707941      -1.30488694       0.20316361      -0.40394915      -0.03393645
H        0.59687038       0.46184548      -0.39358188       0.57579867       0.70426439      -0.35700060
H       -0.52551182      -0.30199328       0.65780733      -0.52364460      -0.29634027       0.49732266
H        0.08901413      -1.20855998      -0.82983094      -0.48908272       0.89920080       0.50294749
Cl       1.67033088      -0.44541307       1.43699728       1.26413234      -0.35614729       1.07960213
6
Properties=species:S:1:pos:R:3:forces:R:3 energy=-26135.454212456534 free_energy=-26135.454212456534 dipole="-0.898432100708814 0.2736004958237088 -0.6142266962023062" pbc="F F F"
C       -0.22012204       0.10340099      -0.11904731      -1.20457145      -0.69983295      -1.55754654
Cl      -1.74653667       0.50315865      -1.20971912      -0.06432559       0.22435861       0.32296959
H       -0.13697874       0.77549631       0.68903328      -0.34665951       0.82295983       0.50302576
H       -0.40531150      -0.91315091       0.17044901      -0.06330760      -0.10491845       0.13783914
H        0.54617641       0.17943150      -0.85340876       0.55268550       0.09973400      -0.13624038
Cl       1.82100687      -0.53938038       1.24988146       1.12617864      -0.34230104       0.72995243
6
Properties=species:S:1:pos:R:3:forces:R:3 energy=-26135.295756475207 free_energy=-26135.295756475207 dipole="-0.17903074862245666 -0.807844304594081 -0.7178356643607406" pbc="F F F"
C       -0.10652080      -0.12949709      -0.22012021       0.60678297      -1.28205481      -0.02607564
Cl      -0.26539681      -1.64043055      -1.32544732      -0.10193992      -0.01246258      -0.20015745
H       -0.59136652       0.69081090      -0.68222286      -0.51637735       0.37256881      -0.69432456
H       -0.58095722      -0.38678466       0.71759765       0.08978783      -0.31036740      -0.28106719
H        0.95712440       0.07440960      -0.10835116      -0.35601649      -0.52590108      -0.23380302
Cl       0.30760674       1.67354554       1.40210244       0.27776297       1.75821705       1.43542785
6
Properties=species:S:1:pos:R:3:forces:R:3 energy=-26135.345236453733 free_energy=-26135.345236453733 dipole="0.6840819568113197 -0.31947213077377795 0.9277869454355502" pbc="F F F"
C        0.30268288      -0.03536875       0.15717658       1.80823993       0.07190908      -0.02867371
Cl       1.05655320      -0.62755809       1.79912141      -0.23467756       0.36334537      -0.62704317
H       -0.53556036      -0.64235528      -0.08598477      -0.61242251      -0.24377186       0.67556876
H        0.13704136       1.04468109       0.13732016      -0.21508144      -0.51116323       0.85452171
H        1.04090024      -0.21555679      -0.63501027       0.08663013      -0.17371360       0.56184101
Cl      -1.17737251       0.63423090      -1.83577877      -0.83268854       0.49339424      -1.43621461
6
Properties=species:S:1:pos:R:3:forces:R:3 energy=-26135.228323780557 free_energy=-26135.228323780557 dipole="-0.16951524965456458 -0.1199181182403546 1.0611306784531593" pbc="F F F"
C       -0.14364013       0.08506156       0.25200356      -1.47044988      -0.47323859       1.46615018
Cl      -0.19469186      -0.40000742       2.08964875       0.06224710       0.21381681      -0.08952724
H       -0.78077313       0.94719422       0.14476710      -0.59835501      -0.13765625       0.15395105
H        0.80558706       0.42027702      -0.00744914       1.80232765      -0.10878363       0.32521822
H       -0.46813267      -0.80096472      -0.27273766       0.01796023       0.11473122       0.30797270
Cl       0.25596483       0.35507899      -2.17118082       0.18626991       0.39113044      -2.16376491
6
Properties=species:S:1:pos:R:3:forces:R:3 energy=-26135.403452144063 free_energy=-26135.403452144063 dipole="-1.0734464128242933 -0.1426419719315776 -0.48540150419614575" pbc="F F F"
C       -0.23565569       0.12385032      -0.30503581      -0.68389901      -1.38207989       0.92016640
Cl      -2.01419093      -0.44063820      -0.67468569       0.33034847       0.38118481       0.00669195
H       -0.24496756       0.94607637       0.41579222      -0.46512427      -0.19229389      -0.56023315
H        0.24186055      -0.74533004       0.20449133      -0.77902081       0.77086284      -0.86035686
H        0.20647280       0.35406379      -1.26158920       0.04293705       0.08047909      -0.04633724
Cl       2.08825208       0.38290012       0.79627162       1.55475856       0.34184704       0.54006890
6
Properties=species:S:1:pos:R:3:forces:R:3 energy=-26135.443424415225 free_energy=-26135.443424415225 dipole="1.0365423455912102 0.18220276012086636 0.15035077576342826" pbc="F F F"
C        0.25248622       0.06130146      -0.02529065       0.89316621       1.32749215       1.25412827
Cl       2.17738595       0.34512610       0.42351003      -0.92323998      -0.01980533      -0.23067296
H       -0.14451684       1.03437577      -0.32264827       0.41275150      -0.13718719       0.53353194
H        0.31394741      -0.53712714      -0.88424940       0.10199094      -1.15015075      -0.64419994
H       -0.18124596      -0.34630614       0.89510867       0.49591494       0.14564056      -0.67009076
Cl      -2.26259617      -0.37018793      -0.40607563      -0.98058360      -0.16598943      -0.24269655
6
Properties=species:S:1:pos:R:3:forces:R:3 energy=-26135.273233376865 free_energy=-26135.273233376865 dipole="-0.8282175769289537 0.2936534111546101 -0.6794751284032379" pbc="F F F"
C       -0.24746688       0.21978151      -0.06029507      -2.06931421       0.12718948       0.12791300
Cl      -1.52472708       0.34789724      -1.43219995      -0.42159361       0.12938047      -0.37509133
H       -0.65316968       0.89580296       0.71895192       0.30035229      -0.89354849      -0.32347387
H       -0.19991811      -0.84949166       0.17239119      -0.18115246       0.87534184      -0.23619741
H        0.61266998       0.65557711      -0.48163133       0.87625308       0.06063062      -0.54158914
Cl       1.61540876      -0.44232035       1.44097892       1.49545492      -0.29899392       1.34843875
6
Properties=species:S:1:pos:R:3:forces:R:3 energy=-26135.309720419857 free_energy=-26135.309720419857 dipole="-0.6533573183538365 -0.6795488507263275 0.5160595181844645" pbc="F F F"
C       -0.14479831      -0.06694540       0.32552363      -1.30015805      -1.91240169      -0.69693518
Cl      -1.37233603      -1.53886581       0.78455448       0.66100908       0.45763790      -0.10863587
H        0.58823194      -0.06510047       1.06917308       0.69344336       0.13824466       1.43882419
H        0.35653024      -0.29002238      -0.60496005      -0.82098493      -0.50335626      -0.09024515
H       -0.84168612       0.73176595       0.30120465      -0.14999609       0.68929233      -0.06811278
Cl       1.41846500       1.55083831      -0.91661105       0.91668663       1.13058306      -0.47489521
6
Properties=species:S:1:pos:R:3:forces:R:3 energy=-26135.4539741193 free_energy=-26135.4539741193 dipole="0.9419658751934977 0.7460219667416796 0.3550512933205321" pbc="F F F"
C        0.32551989       0.09801366       0.06562135       0.31612123      -0.02261072      -0.07823502
Cl       1.55619012       1.37232817       0.65801830       0.00705577      -0.34134128      -0.03482072
H       -0.23071158      -0.31306557       0.92011752       0.97308110       0.05947187      -0.24108704
H       -0.40764138       0.64416861      -0.49299295       0.03520628       0.44194802      -0.30415349
H        0.81533314      -0.64340155      -0.61587310      -0.24055630       0.78000118       1.12158974
Cl      -1.67151355      -1.39665667      -0.67488486      -1.09090807      -0.91746907      -0.46329347
6
Properties=species:S:1:pos:R:3:forces:R:3 energy=-26135.346835319866 free_energy=-26135.346835319866 dipole="-0.9608120717470999 -0.7624325320484727 -0.1903962013758221" pbc="F F F"
C       -0.29982876      -0.11918515      -0.26346659      -2.28539744      -0.69786542      -0.42488654
Cl      -1.61783915      -1.47571953      -0.10025368       0.59097366       0.31277169      -0.05458771
H       -0.65305296       0.67185574       0.33536867      -0.93404426       0.94401539       0.32151168
H        0.60196887      -0.33168411       0.21144192       1.30080033      -1.54962328       0.21226432
H       -0.27721715       0.12596480      -1.31079745       0.27348755      -0.04652653      -0.16326561
Cl       1.72876076       1.50284695       0.21124369       1.05418016       1.03722815       0.10896385
6
Properties=species:S:1:pos:R:3:forces:R:3 energy=-26135.344595298484 free_energy=-26135.344595298484 dipole="-0.6437086286571088 0.29628875440986324 -0.9726251189896539" pbc="F F F"
C       -0.07742434       0.05362799      -0.30969235      -0.47048957      -0.52540863      -0.34578381
Cl      -1.25771279       0.56988843      -1.66537130       0.17473159       0.43762163       0.05473712
H        0.46671339      -0.76999455      -0.79561412      -0.48299855       0.17437527       0.67883405
H        0.65281134       0.78475029       0.02881160      -0.49767719       0.58735969      -0.74752721
H       -0.70156661      -0.18977274       0.56495603       0.27049976      -0.16206036      -0.97319180
Cl       1.27206094      -0.58308191       1.77603917       1.00593395      -0.51188760       1.33293165
6
Properties=species:S:1:pos:R:3:forces:R:3 energy=-26135.28034456838 free_energy=-26135.28034456838 dipole="-0.832063391357106 0.018172000974369416 -0.7499637612155751" pbc="F F F"
C       -0.22791162      -0.20603183      -0.18316454      -1.74215819       2.62581150       0.39479334
Cl      -1.56446291       0.28495461      -1.50254031       0.63004703      -0.60355105       0.04217751
H        0.71662095      -0.52950578      -0.54081686       0.32991627       0.00491358      -1.16085161
H       -0.18523761       0.76667670       0.36536170       0.14283141      -1.23164510      -0.74683238
H       -0.70242726      -0.94555686       0.41171814      -0.44504574      -0.60262339       0.34892038
Cl       1.64654637      -0.19500535       1.55788125       1.08440922      -0.19290555       1.12179276
6
Properties=species:S:1:pos:R:3:forces:R:3 energy=-26135.468841478345 free_energy=-26135.468841478345 dipole="-0.5748243664244803 0.5055053073243236 1.0098716506630345" pbc="F F F"
C       -0.19153029       0.13231011       0.22749713      -1.02258215      -1.96208273       0.99866480
Cl      -0.93511833       0.88575657       1.75349432      -0.24341802      -0.08265472      -0.07051689
H        0.35455952      -0.77204162       0.54220817      -0.02046923       0.91539507       0.17864383
H       -0.95026569      -0.28059950      -0.45916048       0.02681185       0.94266907       0.55321318
H        0.41735591       0.88281093      -0.17914549       0.62900537       0.75022206      -0.52230624
Cl       1.00508299      -0.92575623      -1.82784133       0.63065217      -0.56354875      -1.13769868
6
Properties=species:S:1:pos:R:3:forces:R:3 energy=-26135.275086948317 free_energy=-26135.275086948317 dipole="0.3083850548670929 -0.8272578256850021 0.810865581022416" pbc="F F F"
C        0.16484028      -0.34416603       0.05994731       2.17379573       0.11681751       1.22053530
Cl       0.40758848      -1.32108066       1.65639674       0.28961811      -0.10804224       0.33512048
H       -0.81134717       0.08233997       0.22090961       0.20053271      -0.17016347      -0.50626513
H        1.03281984       0.37042615      -0.04344855      -1.41971034      -0.60019981       0.74586656
H        0.39489683      -1.11434144      -0.65247840      -0.95991498      -0.12673636      -0.64698610
Cl      -0.48096498       1.45650086      -1.66320096      -0.28432123       0.88832437      -1.14827111
6
Properties=species:S:1:pos:R:3:forces:R:3 energy=-26135.16832601076 free_energy=-26135.16832601076 dipole="-0.8482214459992712 0.3640777828032054 -0.6018812374180774" pbc="F F F"
C       -0.31503845       0.31315202       0.04920113       0.23621970       1.69021320      -1.11243427
Cl      -1.57107101       0.42904988      -1.46009811       0.82870957       0.00089172       1.04196914
H       -0.13943812      -0.70629623       0.31133312      -0.79427105      -0.57758481      -0.35599012
H        0.70499234       0.71187890      -0.25129725      -1.88557124      -0.22652368      -0.15862275
H       -0.76000744       0.91388308       0.86630030       0.16288517      -0.44525711      -0.65133857
Cl       1.68334000      -0.56129502       1.41708819       1.45202786      -0.44173931       1.23641656
6
Properties=species:S:1:pos:R:3:forces:R:3 energy=-26135.332796354265 free_energy=-26135.332796354265 dipole="-0.6254127700523664 0.1061843254726297 -1.0453521179557779" pbc="F F F"
C       -0.19523559       0.22547212      -0.24352632      -1.34566618      -0.28037026       0.43974209
Cl      -1.04276332      -0.04741823      -1.84800201      -0.14010086       0.09903634      -0.35397985
H       -0.96057142       0.62492611       0.47289853       0.77475491      -0.46921073      -0.88482969
H        0.20390750      -0.72393163       0.13041567      -0.52510328       0.37898038      -0.76088152
H        0.60211939       0.93062700      -0.37870406       0.16862767       0.22210584      -0.31348867
Cl       1.11330650      -0.05262183       1.92412578       1.06748774       0.04945842       1.87343764
6
Properties=species:S:1:pos:R:3:forces:R:3 energy=-26135.403638287575 free_energy=-26135.403638287575 dipole="-0.7855263192398161 -0.0277941085122789 -0.9158995927166206" pbc="F F F"
C       -0.40565073      -0.18437637      -0.10787616       0.13326337       1.76671245      -1.42950571
Cl      -1.15789674       0.15493367      -1.81378828       0.00542234      -0.21980838       0.17097447
H       -0.83305892      -1.09307805       0.21283268      -0.35814104      -0.96523570       0.39635087
H        0.68452188      -0.20840188      -0.22005320      -0.87853382      -0.03263792      -0.36026647
H       -0.72377649       0.68570123       0.47556849       0.19490004      -0.49991548      -0.20816395
Cl       1.32014112      -0.07495483       1.83702117       0.90308910      -0.04911497       1.43061078
6
Properties=species:S:1:pos:R:3:forces:R:3 energy=-26135.173920122194 free_energy=-26135.173920122194 dipole="-0.6889966494077862 0.23890932227020464 -0.8360614495395604" pbc="F F F"
C       -0.07930753      -0.10889699      -0.35052375       0.58782169       1.73572743      -1.72941720
Cl      -1.46659032       0.65163312      -1.38846768      -0.00326087      -0.06329029       0.00120836
H        0.43437579      -0.75618023      -1.05436660      -0.33630205      -0.52995995       0.26756238
H        0.66082779       0.69858650      -0.14928863      -1.38950130      -0.39512961      -0.06055209
H       -0.51212778      -0.54227545       0.52210698      -0.45251509      -0.07503106      -0.05007596
Cl       1.47688151      -0.59768024       1.52660989       1.59375762      -0.67231651       1.57127451
6
Properties=species:S:1:pos:R:3:forces:R:3 energy=-26135.389881390824 free_energy=-26135.389881390824 dipole="-0.8492368370518504 0.32759821782419596 -0.8031705691362042" pbc="F F F"
C       -0.18850101       0.06197532      -0.22550752       0.41879456       0.90477328      -1.71727805
Cl      -1.53029795       0.61074031      -1.42041907       0.13441182      -0.18620388       0.20177621
H        0.05370034      -0.97048451      -0.40225155       0.27801354      -0.00965290      -0.88559839
H        0.62908659       0.80640441      -0.31066446      -0.71727582      -0.87458903      -0.21578833
H       -0.56563358       0.04354202       0.73887201      -1.20469882       0.60539540       1.58960053
Cl       1.59083378      -0.62831106       1.49608641       1.09075471      -0.43972288       1.02728803
6
Properties=species:S:1:pos:R:3:forces:R:3 energy=-26135.038449807074 free_energy=-26135.038449807074 dipole="-0.6174773751848383 -0.6523426369278966 0.5143722207732654" pbc="F F F"
C       -0.13690110      -0.01034250       0.38153137       0.62098451      -3.29843048       0.75746355
Cl      -1.30747299      -1.47986748       0.71834524      -0.30531535       0.22508355       0.39596592
H        0.49284525       0.07721807       1.25161036      -0.31904813       0.35777809       0.37995849
H        0.45858323      -0.43566614      -0.38791488      -0.09392244      -0.39751907      -0.37889942
H       -0.67239800       0.80003907       0.04049028      -1.48099460       1.35952444      -0.18738463
Cl       1.34592310       1.47081530      -0.87332387       1.57829600       1.75356347      -0.96710391
6
Properties=species:S:1:pos:R:3:forces:R:3 energy=-26135.37276647268 free_energy=-26135.37276647268 dipole="-0.7608542768932823 0.2058520129882401 -0.9145290798340445" pbc="F F F"
C       -0.24728407       0.09395043      -0.16649952      -1.87877119      -0.61785049       0.11382436
Cl      -1.28171715       0.31916966      -1.69871053       0.08722185       0.07486885       0.19764888
H        0.68699209       0.53477769      -0.27672653       1.29537167       0.89728527      -0.88679348
H       -0.73787357       0.55054352       0.69436007      -0.29730429      -0.05196374      -0.51301820
H       -0.11075526      -0.96365249       0.01473852      -0.35559805      -0.01258368      -0.41759918
Cl       1.37009681      -0.35446107       1.74282886       1.14908001      -0.28975621       1.50593762
6
Properties=species:S:1:pos:R:3:forces:R:3 energy=-26135.322745142374 free_energy=-26135.322745142374 dipole="0.8500384405113618 0.23606710194707647 0.4435218011439642" pbc="F F F"
C        0.27076882      -0.13412172       0.11475256       1.10267128       1.72338203      -0.29553244
Cl       1.77793002       0.81590989       0.98895076      -0.06457858      -0.30160073       0.03756976
H       -0.58510093       0.31811086       0.64131202       0.85100041      -0.41148526      -0.60406233
H        0.49154890       0.17057041      -0.93999598      -0.67516503      -0.32385088       1.36829681
H        0.49735070      -1.16671164       0.31648372      -0.20422600      -0.14760761       0.10628443
Cl      -1.88115241      -0.75118801      -1.02833680      -1.00970207      -0.53883755      -0.61255623
6
Properties=species:S:1:pos:R:3:forces:R:3 energy=-26135.01695729922 free_energy=-26135.01695729922 dipole="-0.4443591335903785 0.28832211586146905 0.9996277524942315" pbc="F F F"
C       -0.43207288       0.31361348       0.14711572       1.15631915      -2.13413660       2.19630590
Cl      -0.46913663       0.25241178       2.03622184      -0.08557232       0.46375459       0.04980954
H        0.37918825      -0.42341382      -0.12416087      -1.91499815       0.51888785       0.79782077
H       -1.46778630       0.12913432      -0.08131800       0.07857972      -0.22326514      -0.62963214
H       -0.01290887       1.21676887      -0.16904251       0.07267281       1.71938402      -0.12686996
Cl       0.64685021      -0.38489925      -2.07541759       0.69299879      -0.34462473      -2.28743411
6
Properties=species:S:1:pos:R:3:forces:R:3 energy=-26135.262788538508 free_energy=-26135.262788538508 dipole="-0.7123341248213031 -0.69491972939645 -0.30657679548321703" pbc="F F F"
C       -0.09012678      -0.19958129      -0.21223055      -0.81384118      -2.65652963      -0.57812074
Cl      -1.67608719      -1.42594483      -0.40870059       0.93661597       0.69360967       0.13953016
H        0.22125239      -0.09099157      -1.20024197       0.17949328       0.34628947      -1.73922141
H       -0.43929738       0.68190069       0.19331781      -1.00314868       1.13140472       1.13414951
H        0.66789996      -0.77576291       0.27145442      -0.25268218      -0.26663855       0.88993701
Cl       1.69383215       1.49882223       0.50152018       0.95356278       0.75186432       0.15372546
6
Properties=species:S:1:pos:R:3:forces:R:3 energy=-26135.481109120377 free_energy=-26135.481109120377 dipole="-0.7859078057367977 -0.7646276120356126 0.4695908940810066" pbc="F F F"
C       -0.24104404      -0.14449024       0.10515352      -0.04832089      -0.64520003      -0.23887915
Cl      -1.39335247      -1.43808117       0.87835579      -0.00791362       0.24259439       0.01562047
H        0.77237842      -0.53422969       0.30173213      -0.84227336       0.30107306      -0.01235283
H       -0.46359675      -0.19594970      -0.98946993       0.09272177       0.28570651       1.31549314
H       -0.42213504       0.83418890       0.60039894      -0.06792077      -1.07574769      -0.51867351
Cl       1.47824500       1.48407921      -0.91149997       0.87370687       0.89157375      -0.56120812
6
Properties=species:S:1:pos:R:3:forces:R:3 energy=-26134.645506774814 free_energy=-26134.645506774814 dipole="-0.9342481303834973 -0.5994488791323157 -0.6250705056410546" pbc="F F F"
C       -0.42808856      -1.21944701      -0.01009895      -2.47635023      -1.54026009      -2.43288048
Cl      -1.21123181       0.17776427      -1.08538833       1.16402495      -1.29436644       1.41181983
H       -0.92626461      -1.31456178       0.94328856      -0.10902275       0.64076685       0.11857857
H       -0.72967843      -2.06773928      -0.64038931      -0.46320737      -0.08857706       0.09700352
H        0.62450692      -1.31766053       0.08249241       0.54910129       1.00356855      -0.22781440
Cl       1.38560302       0.36904361       1.07785163       1.33545412       1.27886820       1.03329296
6
Properties=species:S:1:pos:R:3:forces:R:3 energy=-26135.14757852246 free_energy=-26135.14757852246 dipole="-0.7468255900706037 -0.6918862586084746 -0.28943125330278574" pbc="F F F"
C       -0.14435983      -0.15014831      -0.16421486      -0.38027802      -1.43097892      -1.48802614
Cl      -1.56380704      -1.35851528      -0.42310909      -0.52888164      -0.01386186      -0.17194640
H        0.60515617      -0.57069636      -0.81201818       0.22008127      -0.06120706      -0.19774900
H       -0.37879241       0.84017015      -0.52066728      -0.78466236      -0.18564895       0.41742119
H        0.15313229      -0.32518673       0.83064365      -0.33593439       0.21873121       0.95447680
Cl       1.60192760       1.41097198       0.49302285       1.80967514       1.47296559       0.48582356
6
Properties=species:S:1:pos:R:3:forces:R:3 energy=-26135.28918263469 free_energy=-26135.28918263469 dipole="-0.6804013499207737 -0.619772681335659 0.42785508013332674" pbc="F F F"
C       -0.22215548      -0.03877928       0.16149598      -0.15113377      -1.14277715      -0.60276845
Cl      -1.38194507      -1.46171143       0.84589959       0.35847375       0.62215692       0.04080488
H        0.75753237      -0.10957350       0.63720054      -0.73271495      -0.37652962       0.37711444
H       -0.09664966      -0.35026754      -0.89832459      -0.57807445       0.45775921       1.08102603
H       -0.71149321       0.92564519       0.35083112      -0.02331463      -0.77651139      -0.16316956
Cl       1.45865381       1.46160557      -0.90316765       1.12676405       1.21590202      -0.73300734
6
Properties=species:S:1:pos:R:3:forces:R:3 energy=-26135.22586928834 free_energy=-26135.22586928834 dipole="-0.7491914239016939 -0.6723216775326716 -0.26485645520635115" pbc="F F F"
C       -0.11448289      -0.18242085      -0.15296503      -1.95670656       0.37000541      -0.04363366
Cl      -1.57668381      -1.35356427      -0.43005252       0.00277173      -0.24848902      -0.24341016
H        0.69191652      -0.44043969      -0.80049918       0.13316584      -0.50664408      -0.28276479
H       -0.52248568       0.80794723      -0.34297989      -0.07436121      -0.45743763      -0.37520131
H        0.06470850      -0.22696762       0.89296168       0.17161419      -0.67088341       0.45047035
Cl       1.60881474       1.41137506       0.48900272       1.72351602       1.51344874       0.49453958
6
Properties=species:S:1:pos:R:3:forces:R:3 energy=-26135.184625813086 free_energy=-26135.184625813086 dipole="0.8908853007757369 0.757432922385027 0.10950649365042298" pbc="F F F"
C        0.33723158       0.07180594       0.27599384      -1.40464034       1.51685030      -1.13267834
Cl       1.49895674       1.49749590      -0.09375633       0.38949826      -0.33245151       0.35615106
H        0.26389048      -0.11863964       1.34097838       0.26948257       0.33454880       0.08274003
H       -0.65405141       0.49250693      -0.12199989       2.04459455      -0.83216426       0.73403957
H        0.63259050      -0.84084544      -0.25105158       0.25534116       0.81187980      -0.04117854
Cl      -1.62010928      -1.50854659      -0.02727703      -1.55427619      -1.49866313       0.00092622
6
Properties=species:S:1:pos:R:3:forces:R:3 energy=-26135.32671822694 free_energy=-26135.32671822694 dipole="-0.696000481772192 0.1726020281672004 -0.6668136269968352" pbc="F F F"
C       -0.14765665       0.15409530      -0.14243395      -1.66724791       2.13931923      -0.72747164
Cl      -1.56467953       0.19467194      -1.49214803       0.10610768       0.09201370      -0.10054608
H        0.75009817       0.16785928      -0.69549595       0.58671924      -0.13011219      -0.66797540
H       -0.33631893       1.11678324       0.37962375       0.16747369      -1.14507816      -0.21631150
H       -0.38025480      -0.74203556       0.34169579      -0.30176978      -0.85153192       0.63310161
Cl       1.61375461      -0.26231049       1.53967254       1.10871709      -0.10461066       1.07920301
6
Properties=species:S:1:pos:R:3:forces:R:3 energy=-26135.326581040496 free_energy=-26135.326581040496 dipole="0.8471620856122661 0.3782261086555343 0.4870614272702424" pbc="F F F"
C        0.14189091       0.13355963       0.18443920       0.75418721       0.79064687      -0.89036383
Cl       1.85401048       0.70788854       0.96394902      -0.72881817      -0.37368478      -0.15587461
H       -0.04133631      -0.93976899       0.37513579       0.50449819       1.05354243       0.46475932
H       -0.59239882       0.87519863       0.56272254       0.68128535      -0.91779343      -0.01377301
H        0.29861917       0.28996706      -0.91048054       0.10372308      -0.10444314       1.28642895
Cl      -1.89255645      -0.75954959      -1.02721831      -1.31487566      -0.44826794      -0.69117682
6
Properties=species:S:1:pos:R:3:forces:R:3 energy=-26135.536467467904 free_energy=-26135.536467467904 dipole="1.1566171061068409 0.2516905346743582 0.41850367637254443" pbc="F F F"
C        0.33087903      -0.05420607       0.08635826       0.35262536       0.64743969       0.82554529
Cl       2.00129975       0.55263115       0.76288932      -0.53502959      -0.51864268      -0.17052802
H       -0.16765548       0.84543213      -0.20425823       0.05957988       0.44524038      -0.24036570
H        0.48294486      -0.69712538      -0.76146983       0.39778927      -0.20739322      -0.00831016
H       -0.28800438      -0.49983371       0.86864183       0.80521207      -0.08443142       0.01762801
Cl      -2.11418244      -0.52426984      -0.78938822      -1.08017700      -0.28221276      -0.42396942
6
Properties=species:S:1:pos:R:3:forces:R:3 energy=-26135.186840935425 free_energy=-26135.186840935425 dipole="-0.4579073465562447 0.1523221577267009 -0.8861318950429239" pbc="F F F"
C        0.04910469       0.15848962      -0.29144409      -1.67982892       1.85105157      -1.39507746
Cl      -1.21658511       0.10881299      -1.77060271      -0.08319632       0.15383175      -0.00469461
H        0.35448285      -0.83499913      -0.29647137       0.37755254      -1.22632529       0.34434353
H        0.72307306       0.89951713      -0.65521788       0.90325085       0.03454663      -0.25248739
H       -0.47311245       0.61439989       0.53147704      -0.58030366      -0.68866757      -0.12213887
Cl       1.18276070      -0.18181632       1.88129689       1.06252550      -0.12443709       1.43005481
6
Properties=species:S:1:pos:R:3:forces:R:3 energy=-26134.847979965198 free_energy=-26134.847979965198 dipole="0.5976810674085292 0.3189982668695028 0.1310750989857324" pbc="F F F"
C        0.23974429      -0.08286464      -0.01902551       0.66416327       1.84975708       1.02033690
Cl       1.63817255       1.33031883       0.47906908      -0.43042079      -0.53383590      -0.26576019
H       -0.41714841      -0.11980574       0.81127035       0.06914040       0.94191389       0.75799692
H       -0.20071313       0.20288266      -0.93238654       0.29922015       1.09956165      -0.64674250
H        0.80374086      -0.94451562      -0.05683083       1.43699593      -1.61125172      -0.27106760
Cl      -1.72468694      -1.27774852      -0.46756313      -2.03909896      -1.74614500      -0.59476353
6
Properties=species:S:1:pos:R:3:forces:R:3 energy=-26135.20388620888 free_energy=-26135.20388620888 dipole="0.8588763730411898 0.2062573976572279 0.2936063429584393" pbc="F F F"
C        0.25201048      -0.01630613      -0.04311963       1.13602266      -0.77155769      -0.00294525
Cl       1.89841119       0.56963225       0.86053916      -0.25327168      -0.24047167      -0.28000246
H        0.47618354       0.05361226      -1.12252900       0.10219852      -0.06503031       0.86443058
H        0.06249492      -1.07511057       0.29219991       0.53274662       1.64413371      -0.14761949
H       -0.47039996       0.72307551       0.25177879       0.31758304      -0.01807431       0.42530782
Cl      -1.98573764      -0.55562201      -0.82947884      -1.83527917      -0.54899972      -0.85917119
6
Properties=species:S:1:pos:R:3:forces:R:3 energy=-26135.102546683764 free_energy=-26135.102546683764 dipole="-0.0947031511885037 -0.48692510063725697 -0.7386277201315729" pbc="F F F"
C       -0.14980327       0.04745570      -0.28833156      -0.81803373      -0.71053147      -1.38539513
Cl      -0.05160225      -1.42814151      -1.60916994      -0.44422951       0.18935298       0.01888380
H        0.64997594       0.62929795      -0.70339796      -0.21657202       0.56025070       0.00033958
H       -1.19409127       0.45394488      -0.24941642       1.31290213      -0.59982729      -0.48903205
H        0.14846479      -0.43866442       0.59574389       0.04258177      -0.90123187       0.35043040
Cl       0.11360797       1.39373459       1.71701415       0.12335135       1.46198695       1.50477340
6
Properties=species:S:1:pos:R:3:forces:R:3 energy=-26135.189350419376 free_energy=-26135.189350419376 dipole="0.8371815975710972 -0.23355099713432526 -0.008735081647182796" pbc="F F F"
C        0.17105633      -0.12416000      -0.11566240       1.96436374      -0.87836967       1.51129230
Cl       2.10078464      -0.46802308       0.16417948       0.00304790      -0.16644946      -0.20097980
H       -0.06743749      -0.64009811      -0.97565098      -0.30387391      -1.19903313      -1.57436971
H       -0.22529629      -0.49345024       0.79349174      -0.06495014      -0.23563985       0.49734825
H        0.19768275       0.89397017      -0.23395976       0.12126009       2.08671160      -0.06323260
Cl      -2.15603840       0.51690264      -0.11315920      -1.71984769       0.39278052      -0.17005844
6
Properties=species:S:1:pos:R:3:forces:R:3 energy=-26135.141265740367 free_energy=-26135.141265740367 dipole="-0.5574344121074515 0.16911972249865515 -0.45522364973337626" pbc="F F F"
C       -0.07615285       0.07051272      -0.12930296      -1.71454675      -0.71415314       0.19262719
Cl      -1.73087080       0.44724332      -1.30830944       0.85461565      -0.20389211       0.53676534
H        0.35879627       1.02008676       0.00848171       0.10123152       0.98302723      -0.27722714
H       -0.46414959      -0.36023286       0.79261904      -0.63774295       0.36975756      -0.63938037
H        0.50660574      -0.65500851      -0.64680460      -0.11153487      -0.10249660      -0.90672635
Cl       1.74526316      -0.47127188       1.34773193       1.50797740      -0.33224294       1.09394133
6
Properties=species:S:1:pos:R:3:forces:R:3 energy=-26135.2969402831 free_energy=-26135.2969402831 dipole="-0.6499670069682845 0.10627667906694895 -0.6700697136412821" pbc="F F F"
C       -0.08604858      -0.04410218      -0.22405563      -1.26992159      -0.39244945      -0.97070768
Cl      -1.60944538       0.36204806      -1.44251866       0.64240516      -0.28628872       0.38628028
H       -0.40668870      -0.85000054       0.40978673      -0.63718892       0.08934312      -0.05171844
H        0.71989260      -0.37040481      -0.84184075       0.19296233       0.07261257      -0.67983043
H        0.09219368       0.87161424       0.26739442      -0.24391158       0.81417307       0.17053368
Cl       1.62707270      -0.33718790       1.52311412       1.31565460      -0.29739058       1.14544258
6
Properties=species:S:1:pos:R:3:forces:R:3 energy=-26134.900002027814 free_energy=-26134.900002027814 dipole="-0.5423329269716828 0.050539325616669566 -0.4138726370487249" pbc="F F F"
C       -0.14334089      -0.10161429      -0.06867986       0.72690475       0.96158647      -2.62728107
Cl      -1.71899109       0.37422264      -1.26138641      -0.25166917      -0.23406154       0.48093011
H        0.54261312      -0.06475426      -0.95620375      -0.53345977      -0.18529835       1.39831951
H        0.01550691       0.75410196       0.58694123      -1.09756319      -0.37924433      -0.40737419
H       -0.25408090      -1.10168982       0.32447098      -0.82142046       0.28652936      -0.03724244
Cl       1.75891199      -0.32806946       1.28592981       1.97720784      -0.44951162       1.19264808
6
Properties=species:S:1:pos:R:3:forces:R:3 energy=-26135.153934135582 free_energy=-26135.153934135582 dipole="0.8240992552877406 0.12386108007917664 0.2081224652730122" pbc="F F F"
C        0.15942237       0.00775911       0.16001024       2.08338310      -1.31892518      -0.23328540
Cl       2.08811730       0.34360973       0.34075382       0.12447522       0.28984802       0.23457793
H        0.20135412      -0.49095524      -0.80316319      -0.09166190      -0.13230732       0.63431847
H       -0.03988828      -0.53749323       1.07281339      -0.00468120      -0.22435384      -0.37757600
H       -0.31970015       0.92520049       0.11361182      -0.11768412       1.79727135       0.05108560
Cl      -2.13763272      -0.34330284      -0.40586555      -1.99383110      -0.41153303      -0.30912060
6
Properties=species:S:1:pos:R:3:forces:R:3 energy=-26135.194528091673 free_energy=-26135.194528091673 dipole="-0.08889759246229349 0.49003726960163285 -0.6501795425280721" pbc="F F F"
C       -0.01473388       0.06026435      -0.17199823      -0.84347618       0.66575328      -0.34523345
Cl      -0.23321753       1.37976731      -1.67494624       0.18685414      -0.53241144       0.29888980
H       -0.61439353      -0.81459536      -0.45166276       0.04467860       0.87792970      -0.16895043
H        1.02722373      -0.21203862      -0.11075110       0.10715329       0.65544858      -0.43726993
H       -0.40375650       0.65857014       0.66851064       0.32955737      -0.42037333      -0.90037395
Cl       0.23795159      -1.38972010       1.73020506       0.17523278      -1.24634679       1.55293796
6
Properties=species:S:1:pos:R:3:forces:R:3 energy=-26134.933817380763 free_energy=-26134.933817380763 dipole="0.5919235754358861 -0.1921421157466354 -0.025314325364906368" pbc="F F F"
C        0.09303188      -0.15569866      -0.02540587       1.64639214      -0.34102453       3.10926158
Cl       2.11013401      -0.37696002      -0.05181091       0.16439960      -0.20105668      -0.18787073
H        0.00009488       0.74208229      -0.53443839       0.46485543       1.53259587      -0.27387953
H       -0.24763561      -0.95205848      -0.57980459      -0.31285310      -1.87144922      -1.07194906
H       -0.03754726      -0.27180121       1.08581492       0.23479033       0.55258586      -1.67779117
Cl      -2.13354832       0.44341215       0.06122715      -2.19758440       0.32834870       0.10222891
6
Properties=species:S:1:pos:R:3:forces:R:3 energy=-26135.014575467907 free_energy=-26135.014575467907 dipole="-0.5657917321360378 0.14591581511732496 -0.4331045450501578" pbc="F F F"
C       -0.06945311       0.02176766      -0.15534448      -2.73439337      -0.98161071       1.15115649
Cl      -1.73332074       0.45025673      -1.20761599       0.31113399      -0.28502303      -0.20995502
H       -0.49765096      -0.57111315       0.67626723      -0.03582176       0.74590478      -0.92997062
H        0.61078188      -0.57031040      -0.69392422       0.19116424      -0.22841426      -1.48340957
H        0.17471945       1.00515272       0.09781114       0.46045900       1.09756936       0.12983367
Cl       1.74866766      -0.45375716       1.25796993       1.80745789      -0.34842614       1.34234505
6
Properties=species:S:1:pos:R:3:forces:R:3 energy=-26135.051256490937 free_energy=-26135.051256490937 dipole="0.7680409870807098 0.4092669289087978 0.4586421530348211" pbc="F F F"
C        0.08412832       0.25502849       0.14467686       0.60988300       2.18389051       2.88897208
Cl       1.82625807       0.64502676       0.94757074      -0.65760760      -0.06651693      -0.01231129
H       -0.15071890      -0.73280632       0.28912785       0.66684066      -2.18906367       0.46157725
H       -0.68850419       0.83967725       0.65820880       0.71765418       0.15268757       0.04428691
H        0.22679717       0.57587269      -0.81316241       0.51105447       0.52857779      -2.31202054
Cl      -1.83734805      -0.75084771      -1.00040463      -1.84782470      -0.60957528      -1.07050441
6
Properties=species:S:1:pos:R:3:forces:R:3 energy=-26135.070314328954 free_energy=-26135.070314328954 dipole="-0.1154404921524724 0.07574942900077818 0.8792717602208693" pbc="F F F"
C        0.08131168       0.10594898       0.20235620      -2.13548506       0.73441946       1.19758833
Cl      -0.42531212       0.06957618       2.09229930       0.22060687       0.23117944      -0.22537829
H       -0.59525355      -0.58258035      -0.23864323      -0.73294360      -0.26503103       0.36780260
H       -0.05021860       1.11248830      -0.18458442       0.03273679      -0.11603344       0.74713330
H        1.03177060      -0.28548394       0.16358464       2.07928019      -0.46632459       0.39369479
Cl       0.38677831      -0.11242336      -2.15347787       0.53580480      -0.11820984      -2.48084073
6
Properties=species:S:1:pos:R:3:forces:R:3 energy=-26135.00778577748 free_energy=-26135.00778577748 dipole="0.5976466401975644 0.2570740682250172 0.42639996663174345" pbc="F F F"
C        0.13743963       0.29686545       0.01409261       0.74198700      -1.13110894       1.38429731
Cl       1.65365596       0.29412549       1.37040338      -0.57811940       0.36618940      -0.29128178
H        0.63146260      -0.31249760      -0.71887626      -0.04794333      -0.11802208       0.09050257
H       -0.75122428      -0.13622498       0.49361102       1.37388415       0.20931698       0.45534293
H       -0.01587571       1.29870701      -0.28728990       0.16844825       1.02096584      -0.03951519
Cl      -1.69636583      -0.41887683      -1.36060396      -1.65825667      -0.34734119      -1.59934584
6
Properties=species:S:1:pos:R:3:forces:R:3 energy=-26135.061417944722 free_energy=-26135.061417944722 dipole="-0.283173545988313 0.42358839360676503 0.36771210256314324" pbc="F F F"
C       -0.07159484       0.09935987       0.04483985       0.07512016       0.46736181       1.10906014
Cl      -0.93103825       1.42454389       1.28619724      -0.06927259       0.44047631       0.19878672
H        0.67510394      -0.33809183       0.71240584      -0.56860751       0.54142401      -0.16575347
H       -0.95662080      -0.49850667      -0.10316580       0.18766670       0.14341182      -0.26649015
H        0.32871155       0.71577564      -0.75800316      -0.56312022       0.04115052       0.54855191
Cl       0.95395372      -1.45477300      -1.29715968       0.93821347      -1.63382446      -1.42415515
6
Properties=species:S:1:pos:R:3:forces:R:3 energy=-26135.105020867937 free_energy=-26135.105020867937 dipole="-0.3229523911724044 0.05452822797502669 -0.546090047065927" pbc="F F F"
C        0.00648241      -0.09269695      -0.18415017      -1.76803215       3.31167040       0.23376643
Cl      -1.23239121       0.34468915      -1.76494577       0.04029682      -0.32101359      -0.37932818
H        0.87405884       0.46202938      -0.52138072      -0.09010666      -0.67248705      -0.03579355
H       -0.63348365       0.50394030       0.50287789       0.85023532      -0.85827692      -0.63186313
H       -0.07112350      -1.12891223      -0.08086689       0.10967753      -1.22774350      -0.35181080
Cl       1.22537661      -0.30864884       1.83016418       0.85792915      -0.23214934       1.16502924
6
Properties=species:S:1:pos:R:3:forces:R:3 energy=-26135.2180009983 free_energy=-26135.2180009983 dipole="0.49914606677846 -0.28708130695908834 0.7261139295474865" pbc="F F F"
C        0.18446957      -0.14760687       0.08504095       1.78767525      -0.50695234       0.28435166
Cl       1.04885319      -0.53523033       1.81873849      -0.17615051       0.00739972      -0.61693858
H       -0.80228730      -0.51025856       0.17432492      -0.68180192      -0.24374863       0.68252066
H        0.27866822       0.91687108      -0.04832786       0.15309583      -0.07610579       0.55847228
H        0.73094807      -0.71127646      -0.69216000      -0.04683076       0.30548629       0.86950003
Cl      -1.11724957       0.59390473      -1.83145314      -1.03598789       0.51392075      -1.77790605
6
Properties=species:S:1:pos:R:3:forces:R:3 energy=-26134.919094724108 free_energy=-26134.919094724108 dipole="-0.16371475356672782 -0.3893572343315812 -0.6824407867192109" pbc="F F F"
C       -0.24609068      -0.03855949      -0.15479573      -0.06900224       0.13832197      -1.16787156
Cl      -0.07482167      -1.10295513      -1.79608192      -0.65474239      -0.17617741      -0.42962023
H       -1.25461824       0.30166272       0.07625649      -0.10784852      -0.27939159      -0.95284801
H        0.00486495      -0.80161220       0.54405235       0.75289284      -0.12456779       0.00676558
H        0.40963923       0.77829223      -0.46664567      -0.15155793      -0.81108336       0.45435336
Cl       0.18208909       1.10810516       1.84415975       0.23025824       1.25289818       2.08922086
6
Properties=species:S:1:pos:R:3:forces:R:3 energy=-26135.261698676863 free_energy=-26135.261698676863 dipole="0.6808737697004413 0.5772297890610472 0.03151889852484362" pbc="F F F"
C        0.22761371       0.04413515       0.05732702       1.45773329       0.64169289       2.38582166
Cl       1.54607635       1.53572048      -0.02956713      -0.14994421      -0.37172884       0.06677454
H       -0.60220271       0.50438558       0.56824167       0.21827814       0.26696021      -0.13568014
H        0.06638167      -0.16928437      -0.94922823       0.07830133      -0.24310166      -1.29650116
H        0.72701202      -0.72612669       0.70132293      -0.40265960       0.93422637      -1.04016803
Cl      -1.62863175      -1.53955557       0.00103528      -1.20170896      -1.22804897       0.01975313
6
Properties=species:S:1:pos:R:3:forces:R:3 energy=-26135.00348436871 free_energy=-26135.00348436871 dipole="0.5505199704741629 0.30763312050974223 0.4391773001669435" pbc="F F F"
C        0.09511652       0.02998208       0.13593968       1.89681568       1.95006010      -1.36788483
Cl       1.57528260       0.88367431       1.13753504       0.02325281      -0.11131090      -0.02404229
H       -0.72415491       0.53202830       0.52636732      -1.14206456       0.79545664       0.93092061
H        0.24453743       0.31746827      -0.92395313       0.66377453      -0.20484284       1.29153873
H        0.15912421      -0.98016264       0.37128610       0.55182437      -1.33831480       0.47339441
Cl      -1.59839648      -0.89011728      -1.18284565      -1.99360283      -1.09104820      -1.30392663
6
Properties=species:S:1:pos:R:3:forces:R:3 energy=-26134.948067546473 free_energy=-26134.948067546473 dipole="-0.564486797539281 0.20815133083149404 -0.427989443518861" pbc="F F F"
C       -0.14467794       0.14231553      -0.02560260      -1.10656879       1.13476939      -0.84498797
Cl      -1.54042345       0.39647170      -1.35244605      -0.91719188       0.61402550      -0.93236433
H       -0.25726103      -0.89649132      -0.05452773       0.50256187      -1.03334821       0.15518279
H        0.68837832       0.67176095      -0.43854210      -0.01514610      -0.23819631      -0.52315107
H       -0.58409614       0.65432826       0.79788303      -0.18556266       0.05575034       0.52712381
Cl       1.59379241      -0.45690573       1.35245341       1.72190756      -0.53300071       1.61819677
6
Properties=species:S:1:pos:R:3:forces:R:3 energy=-26134.958322145078 free_energy=-26134.958322145078 dipole="-0.6071408625373513 0.2325188380434749 -0.40279070156946317" pbc="F F F"
C       -0.25017347       0.20388010       0.09413885      -1.68259174      -1.89762317      -1.55876337
Cl      -1.49605150       0.41481785      -1.48383311      -0.17222395       0.08462642       0.43611092
H       -0.01899347      -0.84033738       0.04136740      -0.06631746       0.04976817      -0.94431323
H        0.44409925       0.90395527      -0.20108858       1.27905769       1.18787388      -0.39634173
H       -0.81942573       0.33739568       0.96167547      -0.94703790       0.87067701       0.95552816
Cl       1.59202634      -0.49529812       1.42913433       1.58911337      -0.29532231       1.50777925
6
Properties=species:S:1:pos:R:3:forces:R:3 energy=-26135.356034334327 free_energy=-26135.356034334327 dipole="-0.7098703249423984 0.29343605955302915 -0.5593275181777375" pbc="F F F"
C       -0.19637473       0.14434066      -0.05205163      -0.16147905       1.42139086      -1.81564813
Cl      -1.61840341       0.53009174      -1.41525214       0.40671684      -0.27476002       0.49731444
H        0.71777030       0.30159354      -0.63258256      -0.66385701      -0.24035161       0.13717721
H       -0.37957580       0.95457232       0.62883171      -0.05994105      -0.06800095       0.33527909
H       -0.34768823      -0.84148303       0.30166486      -0.54206220      -0.58197478      -0.07658604
Cl       1.68520811      -0.59078782       1.42441701       1.02062246      -0.25630351       0.92246343
6
Properties=species:S:1:pos:R:3:forces:R:3 energy=-26135.20316522767 free_energy=-26135.20316522767 dipole="0.5826726396727698 -0.4685114535355696 -0.5093057125268602" pbc="F F F"
C        0.20855715       0.03507828      -0.17553676       1.14641633       0.31577048      -2.34191666
Cl       1.25925466      -1.35202008      -1.12134196      -0.16296291       0.39722375      -0.05629210
H        0.90212082       0.86722774      -0.08747445      -0.04626902      -0.27459101      -0.03108831
H       -0.65055896       0.27620274      -0.79879517       0.48786747      -0.59111021      -0.04985275
H        0.01555737      -0.45752397       0.70704774      -0.30791160      -1.09253291       1.42179703
Cl      -1.33751238       1.32063167       1.18591256      -1.11714027       1.24523990       1.05735279
6
Properties=species:S:1:pos:R:3:forces:R:3 energy=-26135.169343481328 free_energy=-26135.169343481328 dipole="0.7329687471969293 0.5502401823118619 0.30199204540671437" pbc="F F F"
C        0.11881236       0.11680389       0.24490985       0.50323057       1.90153717      -0.45196079
Cl       1.73035274       1.24373899       0.39575757      -0.60436925      -0.47710178       0.07296261
H       -0.46440911       0.50935227      -0.60023388       1.13176355      -0.04478372       0.44259994
H        0.43214558      -0.88909593       0.18548223       0.89852916      -0.54315041      -0.46214174
H       -0.41296969       0.25384656       1.15481805      -0.20534372       0.43248602       0.76389234
Cl      -1.75794823      -1.27973411      -0.49978011      -1.72381031      -1.26898728      -0.36535236
6
Properties=species:S:1:pos:R:3:forces:R:3 energy=-26135.20845791757 free_energy=-26135.20845791757 dipole="0.2012851607433531 -0.7934286622279496 0.16881021151079123" pbc="F F F"
C        0.09135070      -0.16491928       0.01136121      -0.74180466      -1.23173444       0.98997603
Cl       0.45510516      -2.08883083       0.46227270       0.11563809       0.50539876       0.05612401
H       -0.71668001       0.10468689       0.69548920       0.01715444      -0.77281049      -0.60519878
H        0.92586193       0.41838420       0.31546659       1.05481345      -0.35064888      -0.13272600
H       -0.10878977      -0.28754061      -1.03900490      -0.05791028       0.18128825       0.13786560
Cl      -0.48891076       2.13801082      -0.46532449      -0.38789105       1.66850679      -0.44604086
6
Properties=species:S:1:pos:R:3:forces:R:3 energy=-26135.305576627434 free_energy=-26135.305576627434 dipole="0.2240983712983519 0.7103324008951312 -0.4853769366149681" pbc="F F F"
C        0.10036451       0.11044102      -0.15309215       0.90191413       0.63905412      -0.63296707
Cl       0.47000157       1.81807797      -1.13301726       0.00827886      -0.57622003       0.26600419
H        0.08741888       0.40294457       0.87992993       0.05954255       0.47789915      -0.06754318
H       -0.86990912      -0.16531564      -0.53063653       0.17838939       0.08797541      -0.24442650
H        0.95045736      -0.56233162      -0.37952604      -0.77219182       0.79407357      -0.18145818
Cl      -0.50878264      -1.84626434       1.18574686      -0.37593312      -1.42278222       0.86039074
6
Properties=species:S:1:pos:R:3:forces:R:3 energy=-26135.15089018066 free_energy=-26135.15089018066 dipole="-0.2356505590474267 0.6997313874857792 -0.6494352992322997" pbc="F F F"
C       -0.15973542       0.12126013      -0.14455906       0.44707945       0.47310554      -2.00327257
Cl      -0.38246681       1.55537478      -1.38938954      -0.33176609      -0.02670511      -0.02893237
H       -0.95423934      -0.58658493      -0.22494435      -0.67159062       0.15803704      -0.41871644
H        0.77181390      -0.31194772      -0.44454235       0.17928794       0.14902523      -0.37293228
H       -0.07757857       0.56468831       0.79159696      -0.12969460       1.08203786       1.15989182
Cl       0.44398066      -1.58696690       1.43489622       0.50668392      -1.83550055       1.66396183
6
Properties=species:S:1:pos:R:3:forces:R:3 energy=-26135.050311788487 free_energy=-26135.050311788487 dipole="0.8450952596597646 -0.24349851584774446 -0.002552146543385506" pbc="F F F"
C        0.17010417      -0.13446592      -0.11144150       0.49550642      -0.21784475      -1.19256163
Cl       2.08551931      -0.45927187       0.16482085      -0.08436424      -0.32357910      -0.32075228
H       -0.24652370      -0.70826028      -0.99889161       1.38949639       0.79165048       0.98506707
H       -0.26424942      -0.57770576       0.77328527       0.44097806       0.53903536       0.17944019
H        0.19878711       0.96580400      -0.26683465      -0.08349951      -1.32559319       0.45304905
Cl      -2.13428206       0.51393459      -0.11306050      -2.15811712       0.53633120      -0.10424240
6
Properties=species:S:1:pos:R:3:forces:R:3 energy=-26135.115279326365 free_energy=-26135.115279326365 dipole="0.7188546310637316 0.06287322981650562 0.5747889242516255" pbc="F F F"
C        0.06610112      -0.02597307       0.28416085       2.71994003       0.78667994      -1.46720270
Cl       1.82689818       0.18224439       1.10772655       0.37539728      -0.21968380       0.07101215
H       -0.43404625       0.41881639       1.06781730      -1.72500738       0.47662757       1.25229380
H        0.14886997       0.62308714      -0.60301913       0.30152518      -0.68726598       0.89357633
H       -0.02979024      -1.07256025       0.08721340       0.09660209      -0.18365757       0.18135191
Cl      -1.84033836      -0.17257261      -1.21970070      -1.76845720      -0.17270016      -0.93103149
6
Properties=species:S:1:pos:R:3:forces:R:3 energy=-26135.083312352614 free_energy=-26135.083312352614 dipole="0.13727357126160905 0.46448726405328045 -0.32050529371379677" pbc="F F F"
C        0.06352187       0.06074326      -0.09474228      -0.56766696       1.62153209      -0.20103018
Cl       0.47312744       1.77819761      -1.12713382       0.31069433       0.06770913      -0.10369309
H       -0.32849408       0.52157241       0.78569785       0.14739328       0.29507386       0.12593415
H       -0.68134673      -0.28720149      -0.76142619      -0.23147296      -0.38146048      -0.49010199
H        0.97882135      -0.45596692      -0.00504057       0.90245330       0.11325607      -0.38028787
Cl      -0.49376760      -1.79247740       1.15868712      -0.56140100      -1.71611066       1.04917899
6
Properties=species:S:1:pos:R:3:forces:R:3 energy=-26135.0452528624 free_energy=-26135.0452528624 dipole="0.7657860672054221 0.5718345670441612 0.17934113222354076" pbc="F F F"
C        0.21864600       0.08394862      -0.03759237       0.08403262       2.63492255      -0.94890858
Cl       1.61153232       1.27365938       0.48885789       0.17027860      -0.05024537      -0.17348010
H       -0.62395651       0.71025853      -0.35919283       0.98660671       0.18013964       0.04946814
H        0.54582063      -0.54890505      -0.83092303       0.73210024      -0.12237709      -0.13269250
H       -0.08532270      -0.37468909       0.83315357       0.16975149      -0.95438928       1.80156918
Cl      -1.68096507      -1.29603638      -0.46597100      -2.14276967      -1.68805046      -0.59595614
6
Properties=species:S:1:pos:R:3:forces:R:3 energy=-26135.04414486935 free_energy=-26135.04414486935 dipole="-0.7083900326599594 0.19798881376754926 -0.5414939837098396" pbc="F F F"
C       -0.12288157       0.02276439      -0.16145355      -1.65683149      -0.22435076      -0.37144105
Cl      -1.73224385       0.47312624      -1.20914267       0.69506202      -0.34132717       0.44484500
H        0.68630894       0.41151902      -0.68509012       0.89200710       0.72169969      -1.42183925
H       -0.17984882       0.52769904       0.76704874      -1.00316164       0.52568582       0.48149207
H        0.00395527      -1.03710385      -0.01469760      -0.97210120      -0.19265854      -0.51447217
Cl       1.75936464      -0.47805583       1.26193307       2.04502520      -0.48904904       1.38141539
6
Properties=species:S:1:pos:R:3:forces:R:3 energy=-26135.136904205807 free_energy=-26135.136904205807 dipole="-0.4160307169653021 0.6924359207980366 0.13757449423252271" pbc="F F F"
C       -0.01136094       0.20314858      -0.00378500      -0.85626998       0.46707521       2.45155252
Cl      -1.20468580       1.71961269       0.38040373       0.10782626       0.28900689      -0.04374776
H       -0.34489803      -0.49847463       0.77523710      -0.05232863       0.67397696      -0.72084005
H       -0.26964388      -0.03436515      -0.99012894      -0.31230034      -0.03692582      -1.01460310
H        0.99045923       0.54306245       0.20445323      -0.17169273       0.47242026      -0.23528953
Cl       1.19784607      -1.78873320      -0.37882450       1.28476542      -1.86555350      -0.43707209
6
Properties=species:S:1:pos:R:3:forces:R:3 energy=-26135.13094151593 free_energy=-26135.13094151593 dipole="0.7999137559314472 0.2466543276442072 0.46418901342728014" pbc="F F F"
C        0.19053563      -0.06909531       0.16919304       0.35959635       0.71829270       1.16792617
Cl       1.77159362       0.75715730       0.92893182      -0.01800574      -0.03636470      -0.20183172
H        0.18873543      -1.01381997       0.70671395      -0.33327537       0.26073867       0.07972333
H       -0.64673374       0.63261026       0.41481618       1.44333180      -0.76650422      -0.22357736
H        0.35225516      -0.26978248      -0.88029613       0.54686056       0.71075020       0.17343561
Cl      -1.83314325      -0.71523617      -0.99311635      -1.99850759      -0.88691264      -0.99567603
6
Properties=species:S:1:pos:R:3:forces:R:3 energy=-26135.03799532708 free_energy=-26135.03799532708 dipole="0.23659572722580968 -0.6720836065265883 -0.4710810867398782" pbc="F F F"
C        0.08839864      -0.13368001      -0.08625475       1.21077687      -0.99115478      -0.80102792
Cl       0.55839635      -1.69808973      -1.16419579       0.19343253       0.14599364       0.17686739
H       -0.62131684      -0.49957260       0.59350178      -0.32063873      -0.89193531       0.79917604
H        0.97271225       0.35094987       0.31315539       0.20780971      -0.97280305      -0.22310561
H       -0.38024006       0.48453451      -0.78113536      -0.50604259       0.61093883      -1.35217719
Cl      -0.58752697       1.73383110       1.18985108      -0.78533779       2.09896067       1.40026729
6
Properties=species:S:1:pos:R:3:forces:R:3 energy=-26135.29017535231 free_energy=-26135.29017535231 dipole="0.6992324252355842 0.5538754768162216 0.11379660261867862" pbc="F F F"
C        0.08984001       0.21446978       0.01945006       1.67444108       0.29512614      -1.03394381
Cl       1.81887220       1.21481778       0.30121356      -0.78835424      -0.37392503      -0.18043098
H       -0.42718986       0.74612340      -0.76061488       0.13964678       0.45341369       0.08801506
H        0.36916792      -0.76781784      -0.33180749       0.64645868       0.28986148       0.28918723
H       -0.35545192       0.23176940       0.96946551      -0.26754071       0.19049097       1.03422186
Cl      -1.83755447      -1.29345677      -0.30430733      -1.40465159      -0.85496726      -0.19704935
6
Properties=species:S:1:pos:R:3:forces:R:3 energy=-26135.20724686058 free_energy=-26135.20724686058 dipole="0.6779643787972675 0.1937806346609192 0.30239861807853985" pbc="F F F"
C        0.13991302       0.09948472       0.03740964       1.42752787       0.44357118      -0.94595629
Cl       1.95036982       0.43968263       0.90427587      -0.45994141      -0.10806168      -0.29739562
H       -0.03508662       1.04859828      -0.50977160       0.39100827      -0.97413278       0.51459355
H        0.27227880      -0.81401726      -0.56649018       0.49997434       0.93683792       0.56638828
H       -0.47012814      -0.04647322       0.88429156      -0.23191492      -0.00132092       0.87521843
Cl      -1.99115108      -0.47873830      -0.91149227      -1.62665414      -0.29689372      -0.71284835
6
Properties=species:S:1:pos:R:3:forces:R:3 energy=-26135.328978460748 free_energy=-26135.328978460748 dipole="-0.6916696954809375 0.1922496064550628 -0.45419437307079186" pbc="F F F"
C       -0.18784917       0.05589562      -0.05001848      -1.55677445       0.47249057      -0.58241987
Cl      -1.73884595       0.46508846      -1.25944658      -0.02039791       0.01555293      -0.12443342
H        0.49372052      -0.39027467      -0.73641901      -0.01122331      -0.39406230      -0.22777337
H        0.07268466       1.07351114       0.20003723      -0.07610884      -0.26367982       0.38485692
H       -0.74854667      -0.57097859       0.64935556       0.76489473       0.40181183      -0.19698873
Cl       1.80767120      -0.48721873       1.27318126       0.89960978      -0.23211321       0.74675847
6
Properties=species:S:1:pos:R:3:forces:R:3 energy=-26135.13157211749 free_energy=-26135.13157211749 dipole="0.7413803888537117 0.5344834800083401 0.14379822149077354" pbc="F F F"
C        0.22273586       0.09169054      -0.09928750       2.34018897      -1.08182697       1.70474127
Cl       1.61318377       1.27561512       0.51038222       0.59490241       0.54330672       0.07619645
H       -0.58221636       0.74504925      -0.18321189      -0.95705543       0.93123464      -0.36002304
H        0.69146794      -0.30572285      -1.01232038      -0.67918498       0.05481408       0.66603780
H        0.15056758      -0.57106496       0.80721193       0.24908421       0.78636035      -1.54646625
Cl      -1.69603788      -1.30293536      -0.46570044      -1.54793517      -1.23388882      -0.54048622
6
Properties=species:S:1:pos:R:3:forces:R:3 energy=-26135.20018669967 free_energy=-26135.20018669967 dipole="-0.5154878707985124 -0.5295791037215937 0.30948605885468317" pbc="F F F"
C       -0.10786994      -0.22579955      -0.06690952      -1.18545324      -1.11826088       0.89126338
Cl      -1.42087760      -1.23969139       1.06932275      -0.04557904       0.02017603      -0.20311423
H       -0.29229186       0.77428443       0.20782895      -0.70945455       0.49878090       0.34083796
H        0.77535009      -0.61703694       0.36694750       0.59348223      -0.35170857      -0.02098934
H       -0.38996013      -0.53655594      -1.05684896       0.07974583       0.00513868      -0.05316861
Cl       1.45477839       1.32698114      -1.03294534       1.26725876       0.94587383      -0.95482917
6
Properties=species:S:1:pos:R:3:forces:R:3 energy=-26135.280458714373 free_energy=-26135.280458714373 dipole="-0.13176181913118484 -0.375596135490614 -0.8538493091348829" pbc="F F F"
C        0.01498590      -0.13433485      -0.17508390       0.26378483       0.03026167      -1.75564164
Cl      -0.37695278      -0.80448149      -1.97401834       0.02211675       0.13188406       0.17389615
H       -0.02448657      -1.03086661       0.40054233       0.03957737      -0.20667852       0.23391214
H        0.96212480       0.36829294      -0.29043116       0.24792016      -0.53697130      -0.14007634
H       -0.70391408       0.62038537       0.02601139      -0.94051909      -0.07024270      -0.24771289
Cl       0.36522952       0.85119579       2.02946886       0.36711997       0.65174679       1.73562259
6
Properties=species:S:1:pos:R:3:forces:R:3 energy=-26135.1794229342 free_energy=-26135.1794229342 dipole="-0.5483242157860795 0.16588938773398315 -0.45081767318145" pbc="F F F"
C       -0.20410008       0.08229846       0.00929854      -0.26384546       0.11209821      -1.38005617
Cl      -1.52740328       0.38133205      -1.53845696       0.05814469       0.02037068       0.62670665
H       -0.76939339      -0.07872114       0.91837698      -0.27223060      -0.24191774      -0.56974452
H        0.37344392      -0.68590384      -0.47428892      -0.54793941      -0.33900645       0.24199598
H        0.33618702       0.99741213      -0.02923373      -0.08364829       0.68895736      -0.02344558
Cl       1.59825480      -0.41583519       1.52351033       1.10951906      -0.24050207       1.10454364
6
Properties=species:S:1:pos:R:3:forces:R:3 energy=-26135.035839873082 free_energy=-26135.035839873082 dipole="0.33731095754295876 -0.6725810013538855 0.06643476072195323" pbc="F F F"
C        0.01715785      -0.17935798      -0.05092832       2.90415458      -0.01058040       2.40360674
Cl       1.02200673      -1.84470956       0.27620789       0.38403808      -0.57641356      -0.15477792
H        0.71873096       0.55321835       0.37529034      -0.43217525      -0.86792774      -0.24303772
H       -0.04217529      -0.13540391      -1.07163783      -0.37624475      -0.27146246      -2.18534473
H       -0.78387244      -0.42920008       0.56453861      -1.35227013      -0.06590217       0.44828048
Cl      -1.02476858       1.90580252      -0.25520470      -1.12750254       1.79228632      -0.26872685
6
Properties=species:S:1:pos:R:3:forces:R:3 energy=-26135.19613020984 free_energy=-26135.19613020984 dipole="0.16274679848848075 0.11509283595456223 -0.8615323605577814" pbc="F F F"
C        0.05450969       0.04757872      -0.18138551       1.55692283       2.05956649      -2.10732172
Cl       0.37065592       0.23244400      -2.13743111      -0.05045644      -0.21487081       0.15373875
H        0.57113777       0.93098065       0.12810122       0.06172970       0.11180777       0.31523551
H       -0.96013120       0.06041378      -0.12545794      -2.60742142       0.25572289      -0.08628951
H        0.45993558      -0.85129385       0.07789107       1.29893925      -2.10823438       0.18945627
Cl      -0.39114184      -0.25254808       2.19659734      -0.25971392      -0.10399196       1.53518069
6
Properties=species:S:1:pos:R:3:forces:R:3 energy=-26135.090308418872 free_energy=-26135.090308418872 dipole="0.2450022898397251 -0.4654999462477188 0.3233324732330691" pbc="F F F"
C        0.16288736      -0.13205799      -0.03550344       0.85135973       1.31187391       2.55891417
Cl       0.61729268      -1.61240173       1.35065871       0.10374047       0.16225607      -0.36551670
H       -0.78246555       0.18867432       0.40198544       0.50129857      -0.73570078      -0.19473973
H        0.98285195       0.62091138       0.16834435      -1.01300593      -1.48500712      -0.32178816
H        0.18453664      -0.66931334      -0.94451546      -0.00823277      -0.51719355      -0.51428418
Cl      -0.68342646       1.65315642      -1.32798985      -0.43516007       1.26377147      -1.16258540
6
Properties=species:S:1:pos:R:3:forces:R:3 energy=-26135.376159937856 free_energy=-26135.376159937856 dipole="0.2869595078280645 0.6709809837859108 -0.6065392018075477" pbc="F F F"
C        0.02303554       0.14809430      -0.15900428      -0.42087558       0.40075683      -2.25134725
Cl       0.73660485       1.57630563      -1.38519947      -0.30589445      -0.60628000       0.53026744
H        0.37344286      -0.77938175      -0.60120793      -0.14577323       0.43751266      -0.18733412
H        0.46618081       0.34453251       0.75638905       0.89640224       0.70401394       1.32717443
H       -1.05218465       0.31580140      -0.17122750       0.42906647      -0.00795164      -0.23279112
Cl      -0.73836560      -1.62309718       1.43952881      -0.45292544      -0.92805179       0.81403061
6
Properties=species:S:1:pos:R:3:forces:R:3 energy=-26135.108907351507 free_energy=-26135.108907351507 dipole="-0.6411381159602763 0.20094002237061076 -0.49653494502248885" pbc="F F F"
C       -0.09610080       0.19908742      -0.11687221      -1.56085084      -2.51781574      -1.36171734
Cl      -1.71984758       0.30772707      -1.25550339       0.05891172       0.56363339       0.11069908
H        0.68737951       0.37863488      -0.80428047       0.39279767       0.21407250      -0.59100087
H       -0.15587859       0.83762129       0.69901614      -0.74960516       1.38252632       0.90353697
H       -0.24216960      -0.85067602       0.15034017       0.17834460       0.70365757      -0.22114156
Cl       1.74418103      -0.38557598       1.29381977       1.68040200      -0.34607403       1.15962373
6
Properties=species:S:1:pos:R:3:forces:R:3 energy=-26134.796475412364 free_energy=-26134.796475412364 dipole="-0.5702117461718288 0.24244272952361962 -0.4192165733270718" pbc="F F F"
C       -0.08965374       0.17936361      -0.08098558      -3.39623460      -2.09744287       2.00995969
Cl      -1.70734014       0.46318461      -1.17348895      -0.88238070       0.41830989      -0.23263973
H       -0.13493998       0.95847695       0.69274477      -0.41152201      -0.93625284      -0.34196810
H       -0.23046725      -0.93834747       0.07561849       0.01907580       2.26718591       0.15422682
H        0.50805819       0.40515391      -0.84239011       2.92531517       0.70326151      -2.60386994
Cl       1.73366000      -0.53604841       1.20303301       1.74574634      -0.35506159       1.01429126
6
Properties=species:S:1:pos:R:3:forces:R:3 energy=-26135.15053650728 free_energy=-26135.15053650728 dipole="-0.6096997836073864 0.15870793756802873 -0.4042061241343681" pbc="F F F"
C       -0.15014554       0.02318590      -0.05146016      -1.85309376      -0.36913569      -0.41560014
Cl      -1.70593799       0.46897488      -1.22886097      -0.07770900      -0.18721219       0.01599981
H        0.60662147       0.46152460      -0.60825504       0.98452517       0.75593623      -0.85868561
H       -0.45385481       0.50118758       0.84213358      -0.20879744       0.45258620       0.47399008
H       -0.11267147      -1.04244613       0.01616957      -0.51607684      -0.28461942      -0.42951331
Cl       1.75566950      -0.47456342       1.23918649       1.67115186      -0.36755512       1.21380917
6
Properties=species:S:1:pos:R:3:forces:R:3 energy=-26134.924025253946 free_energy=-26134.924025253946 dipole="-0.25040779853240724 0.14263404326943172 -0.26439378234172495" pbc="F F F"
C       -0.13123047       0.20126544       0.03354280      -0.37309265      -0.60768874      -0.98279573
Cl      -1.15253717       0.22971747      -1.78038867      -0.43131017       0.26741374      -0.48211880
H        0.75082550       0.69081791      -0.31904152      -0.08427321       0.28336830      -0.18954011
H       -0.85344164       0.73859032       0.62961460       0.17453041      -0.10482621      -0.01255755
H       -0.08106101      -0.87084325       0.07656559      -0.50468845       0.24522462      -0.34268197
Cl       1.20222281      -0.31379173       1.75801580       1.21883408      -0.08349172       2.00969416
6
Properties=species:S:1:pos:R:3:forces:R:3 energy=-26134.923904149593 free_energy=-26134.923904149593 dipole="-0.14622097944358128 -0.018639579840914782 -0.37234719273850975" pbc="F F F"
C       -0.00613882      -0.05310698      -0.08645423      -0.09828108      -0.75984989      -0.92697442
Cl      -0.84662598       0.03436802      -1.92889867      -0.57302519      -0.18391508      -1.55848210
H       -0.90589976       0.29442545       0.33939253      -0.46448015      -0.02787041       0.66820280
H        0.26374501      -1.11132900      -0.08037845      -0.27341844       0.70127704      -0.10843104
H        0.70899125       0.68315654      -0.34068300       0.62058050       0.23775599       0.07046796
Cl       0.84680545      -0.01257155       1.96051289       0.78862436       0.03260235       1.85521680
6
Properties=species:S:1:pos:R:3:forces:R:3 energy=-26135.120825876977 free_energy=-26135.120825876977 dipole="0.035381568834684005 0.23438681295885405 -0.42967158462732036" pbc="F F F"
C       -0.03870905       0.06242988      -0.08319987       0.12411459      -0.54947170      -1.54847355
Cl       0.28628030       1.04578859      -1.87275777      -0.02632959       0.26360131      -0.36427124
H        0.90018719       0.30274492       0.34591297       0.21070007       0.47953245       0.26311516
H       -0.97103161       0.50554931       0.17186474      -0.09062345       0.51748985       0.21324028
H       -0.11049220      -0.92396191      -0.50977812       0.03675446       0.11572555      -0.04341845
Cl      -0.26800888      -1.06365184       1.90071969      -0.25461608      -0.82687746       1.47980781
6
Properties=species:S:1:pos:R:3:forces:R:3 energy=-26134.57335022638 free_energy=-26134.57335022638 dipole="0.03572157630519269 -0.022469643309394646 0.05467153233871064" pbc="F F F"
C       -0.00601782      -0.06062668       0.09206690       1.22661962       1.37780772      -3.54746649
Cl       1.84500741       0.52530439       0.80599465       2.51913867       0.62584244       1.14330574
H        0.34234747       0.35326553      -0.90866815      -0.92701049      -0.68098492       1.87811213
H        0.22518895      -1.04287929       0.31041888       0.04486780      -1.77205444       0.20886451
H       -0.40579290       0.53211836       0.83802298      -1.18784558       0.96874331       0.82088725
Cl      -1.84756756      -0.50028486      -0.84400615      -1.67577002      -0.51935411      -0.50370314
6
Properties=species:S:1:pos:R:3:forces:R:3 energy=-26134.742428318074 free_energy=-26134.742428318074 dipole="-0.18989119750941405 0.1230334326340701 -0.2180901017164454" pbc="F F F"
C       -0.06660665       0.20443433      -0.00604857       0.54521434      -0.90374086      -1.08426695
Cl      -1.23223343       0.09052648      -1.69198755      -1.10803780       0.54882681      -1.23242350
H        0.54102327      -0.57482873      -0.49417942      -0.61374162       0.73661601       0.97579644
H        0.29829838       1.21060130      -0.00062765      -0.00348463       0.28487573      -0.54724345
H       -0.87539288       0.04348798       0.67105470      -0.14947727      -0.50867233       0.00316069
Cl       1.25582644      -0.17910632       1.68902540       1.32952698      -0.15790537       1.88497676
6
Properties=species:S:1:pos:R:3:forces:R:3 energy=-26134.735229571448 free_energy=-26134.735229571448 dipole="0.38470261698796776 0.24538859449520883 0.21258269095585663" pbc="F F F"
C        0.03100008       0.20469540       0.00811181       0.62161351      -1.78122757       2.30657795
Cl       1.77152270       0.61565120       0.95014691       0.83547302       0.47139837       0.12517698
H        0.34301907      -0.08565125      -0.97500098       0.78446005      -0.21585405       0.37393264
H       -0.28365508      -0.52899437       0.82468733       0.72473277       1.27131886      -1.81211525
H       -0.41284756       1.15496228       0.05155321      -0.54643816       1.00120528       0.15177813
Cl      -1.77197490      -0.70036871      -0.95008712      -2.41984118      -0.74684089      -1.14535046
6
Properties=species:S:1:pos:R:3:forces:R:3 energy=-26134.674212762267 free_energy=-26134.674212762267 dipole="0.5032720350303658 0.04329898913990081 0.11856609692622451" pbc="F F F"
C        0.13839847      -0.09479593      -0.04054845       0.55720175       2.74783373      -0.11401671
Cl       1.93007447       0.40609873       0.59297729       1.98765018       0.32728027       0.21422152
H        0.23342447      -1.09757602       0.17500583      -0.08712092      -1.92887648       0.04425466
H       -0.30094915       0.51410959       0.73422148      -0.17144443      -0.15732699      -0.45362052
H        0.13607096       0.27467566      -1.07748106       0.50333631      -0.30575143       1.01284762
Cl      -1.97891505      -0.36520014      -0.57445466      -2.78962288      -0.68315911      -0.70368658
6
Properties=species:S:1:pos:R:3:forces:R:3 energy=-26134.585715303812 free_energy=-26134.585715303812 dipole="-0.14311626182350734 -0.1853721506045522 -0.27203294909855147" pbc="F F F"
C       -0.06694952      -0.17772156       0.00261123      -0.54538737       0.02797160      -0.80588150
Cl      -0.69213263      -0.59772054      -1.83157844      -1.12884346      -1.01042872      -2.74679795
H        0.91630422      -0.15301374      -0.39813410       0.48744020       0.31583020       0.50865235
H       -0.73409613       0.65400728      -0.00295805       0.27011256       0.35130169       0.37251218
H       -0.43812736      -1.08524016       0.42002609       0.14563268      -0.24055894       0.63158586
Cl       0.72209306       0.67454802       1.83015534       0.77104538       0.55588417       2.03992905
6
Properties=species:S:1:pos:R:3:forces:R:3 energy=-26134.757879218407 free_energy=-26134.757879218407 dipole="-0.02937774275381462 -0.08372452115511107 0.017979463021369026" pbc="F F F"
C       -0.06274885      -0.15593902       0.06044449       1.51650519      -0.64988781      -0.49019839
Cl      -0.71282487      -0.61134277      -1.89515765      -0.99509853      -0.89831088      -2.37678107
H        0.86286928       0.01643536      -0.46683039      -0.03867052       0.21243449       0.76140608
H       -0.82359642       0.55024159       0.00888427      -0.78688806       1.02341867       0.56925947
H       -0.26382212      -1.16805067       0.36504422       0.04802498       0.19547792       0.56100208
Cl       0.74047006       0.68127700       1.87731974       0.25612694       0.11686761       0.97531183
6
Properties=species:S:1:pos:R:3:forces:R:3 energy=-26134.334711536456 free_energy=-26134.334711536456 dipole="-0.14854263967784245 -0.030762975758856906 -0.14119021711774976" pbc="F F F"
C       -0.09745414      -0.06729636       0.02051592       0.17069369       0.30492441      -0.68720201
Cl      -1.04921197       0.17861104      -1.73098477      -1.18519248       0.26783964      -1.78828347
H        0.85313225       0.34894799      -0.31690427      -1.22363105       0.04859087      -0.45132169
H       -0.81811068       0.40983644       0.65726816      -0.02855772       0.63508836      -0.51672556
H       -0.22229671      -1.11828111       0.02748114       0.20670290      -0.73477999      -0.17887302
Cl       1.08755597      -0.14558792       1.71357420       2.05998466      -0.52166329       3.62240575
6
Properties=species:S:1:pos:R:3:forces:R:3 energy=-26134.698070420774 free_energy=-26134.698070420774 dipole="-0.010482044318050205 0.20414482221816424 0.019920125718391222" pbc="F F F"
C       -0.08155689       0.06116039       0.09799851       1.28291994       0.09163466      -1.17125286
Cl       0.20557411       2.05145643      -0.46284012      -0.01533953       1.26144931       0.05627186
H       -1.13708364       0.09443979       0.22014864      -0.37861045       0.16377195      -0.60598150
H        0.54858395      -0.22521943      -0.74227586      -1.13260881       0.19575268       0.04035845
H        0.47860219       0.01797525       0.97858434       0.58712748       0.78857078       1.21966305
Cl      -0.17481653      -2.06897098       0.41665764      -0.34348864      -2.50117938       0.46094100
6
Properties=species:S:1:pos:R:3:forces:R:3 energy=-26134.097345475955 free_energy=-26134.097345475955 dipole="0.021222902330483448 -0.12284198849036394 -0.0016122346822350648" pbc="F F F"
C        0.06837200      -0.23468824      -0.01143753      -1.34881919      -0.18070037      -0.57442041
Cl       0.66284420       0.33189801      -1.84570152       1.48672321       0.55332247      -3.67690564
H       -0.80622222       0.36372185      -0.26819253       0.79138882      -0.11751925       0.51681658
H       -0.06454028      -1.28230240      -0.27038375       0.21506219       0.17940584       0.39088661
H        1.01349217       0.08974206       0.36801672      -0.06464171       0.19140354       0.11775635
Cl      -0.69006811      -0.22881452       1.85442650      -1.07971332      -0.62591223       3.22586651
6
Properties=species:S:1:pos:R:3:forces:R:3 energy=-26134.680543915427 free_energy=-26134.680543915427 dipole="0.04712358038684624 -0.24435255759375946 0.4293143217463296" pbc="F F F"
C        0.00250910       0.00271052       0.11405147      -2.33393958       0.40150199       2.13497617
Cl       0.32138610      -1.16280022       1.69625690       0.23929798      -0.78923151       0.95788866
H       -1.10898124      -0.00998531       0.14712574       1.13934574       0.03410034       0.25295656
H        0.43443468       0.90839982       0.55544685       0.18093716      -0.78949374      -0.74613080
H        0.33399863      -0.62015322      -0.65765271       1.24434432      -0.70288892      -0.18020311
Cl      -0.31255294       1.15396966      -1.73617655      -0.46998562       1.84601184      -2.41948749
6
Properties=species:S:1:pos:R:3:forces:R:3 energy=-26134.62216365948 free_energy=-26134.62216365948 dipole="0.29698202365247367 0.17514595500097424 0.007865354559469438" pbc="F F F"
C        0.07911446       0.00150367      -0.05164993      -0.24729811       1.37260615       0.99993315
Cl       1.66954056       1.20865059       0.25657640       1.15329085       0.71851370      -0.00094110
H        0.07078602      -0.05981081      -1.10594289       0.06148216       0.88297369      -0.81221335
H        0.50728885      -0.88831410       0.31991887       0.42278351      -0.30328938       0.98481527
H       -0.62929937       0.63512581       0.53155064       1.24244394      -0.73148540      -0.80637791
Cl      -1.69488921      -1.20026011      -0.23184082      -2.63270234      -1.93931876      -0.36521606
6
Properties=species:S:1:pos:R:3:forces:R:3 energy=-26134.900688744696 free_energy=-26134.900688744696 dipole="-0.1576580081772704 -0.03660870961889313 -0.4467615870136169" pbc="F F F"
C       -0.07064489       0.04616075      -0.08666581       0.80322329      -1.77885639      -1.24901625
Cl      -0.59859996      -0.33862286      -1.99871992      -0.58476447      -0.22212878      -1.18875275
H        0.61706417       0.77147539      -0.40108832       1.16826688       0.43569265       0.10414778
H       -0.95339836       0.45558249       0.24602615      -1.89109907       0.37259542       0.62276860
H        0.20185180      -0.98319397       0.14274864      -0.13001906       0.74493753      -0.21572528
Cl       0.62635946       0.31604876       2.02843375       0.63439244       0.44775957       1.92657790
6
Properties=species:S:1:pos:R:3:forces:R:3 energy=-26134.574443886868 free_energy=-26134.574443886868 dipole="0.2326210274546069 0.1298523075090169 0.13301315336828373" pbc="F F F"
C       -0.00689994       0.11928214       0.12612766       0.36745213       0.78197415       0.03607369
Cl       1.93412618       0.55574687       0.42654262       2.08103121       0.84339755       0.74354510
H       -0.37588772       1.15613965       0.06770157       0.51158320      -0.87817567      -0.66597454
H        0.34310810      -0.54104201      -0.64655031      -0.48858261       0.47059114      -0.10242100
H       -0.19760211      -0.28652160       1.08520586       0.11582938      -0.50472891       0.57158032
Cl      -1.92523761      -0.60550435      -0.48367456      -2.58731331      -0.71305825      -0.58280357
6
Properties=species:S:1:pos:R:3:forces:R:3 energy=-26134.791839559686 free_energy=-26134.791839559686 dipole="0.3364065471225106 0.04707606874017297 0.11846395143680102" pbc="F F F"
C        0.05475788      -0.03240169       0.06634272       0.70009234       1.67920376      -1.20241401
Cl       1.97573196       0.39596730       0.57157562       1.13463418       0.07368257       0.50157576
H        0.01269498      -1.06526810       0.28511651       0.45018031      -0.58977279       0.38893398
H       -0.42542825       0.67598810       0.74440824       0.59279907      -0.39060176      -0.37034852
H        0.20913328       0.24982872      -1.00272854      -0.14584019      -0.26400168       1.50385873
Cl      -1.98849552      -0.38102390      -0.59481548      -2.73186571      -0.50851009      -0.82160594
6
Properties=species:S:1:pos:R:3:forces:R:3 energy=-26134.643245699357 free_energy=-26134.643245699357 dipole="0.18208064665857945 0.09396257985339544 0.010662972652228035" pbc="F F F"
C        0.08497566      -0.00742495      -0.07381443       0.51946002      -0.63735425       1.72260122
Cl       1.58514252       1.25065712       0.46532666       2.35545695       1.52087304       0.46394600
H        0.69997453      -0.85357453      -0.29628367       0.24718735       0.06131673      -0.42841356
H       -0.18022222       0.04037872       0.97260237      -0.71015242      -0.01910327      -0.58096247
H       -0.18762995       0.70710032      -0.79285828      -0.77908023       0.19407457      -0.67701717
Cl      -1.62337728      -1.24512467      -0.43700348      -1.63287168      -1.11980682      -0.50015402
6
Properties=species:S:1:pos:R:3:forces:R:3 energy=-26134.32451132201 free_energy=-26134.32451132201 dipole="-0.044477244004220845 0.09684631889128727 -0.05784184835333772" pbc="F F F"
C       -0.08046294       0.20053872      -0.10129010       0.02429306      -1.52028985       0.37378170
Cl       1.05284839      -0.44945281      -1.66810968       1.69862974      -0.45625595      -2.88550669
H        0.63733575       0.96474412       0.13073076       0.11467762      -0.27703508       0.29535854
H       -0.91264770       0.50660284      -0.68854730      -0.44265356       0.15008505      -0.26084656
H       -0.03520555      -0.86785064       0.15489003       0.13272483       1.29050944       0.04732135
Cl      -1.01675694       0.36434717       1.71388529      -1.52767169       0.81298639       2.42989167
6
Properties=species:S:1:pos:R:3:forces:R:3 energy=-26134.642182593365 free_energy=-26134.642182593365 dipole="0.035657781346573166 -0.07255250436847231 -0.06700222284534693" pbc="F F F"
C       -0.00543383       0.01013594      -0.09197510       1.59219580      -0.45539064       1.74361013
Cl       0.59938642      -1.88961474      -0.62012102       0.49207355      -2.06807817      -0.98965554
H       -0.49795761       0.29256931      -0.97374886      -0.68187794      -0.42557242      -0.85175204
H       -0.43581671      -0.43660753       0.80399246      -0.14575755       0.42920509      -0.79601507
H        1.05036652       0.26960877      -0.02199326      -0.64052512       0.20882647       0.04461078
Cl      -0.60086059       1.88261001       0.65673588      -0.61610873       2.31100967       0.84920173
6
Properties=species:S:1:pos:R:3:forces:R:3 energy=-26134.788624672958 free_energy=-26134.788624672958 dipole="0.004000384974649151 0.3742979071566465 -0.1119008421955044" pbc="F F F"
C       -0.11430237       0.12456363       0.04701849      -0.18409742       0.72238158      -0.71304746
Cl       0.37087164       1.88472236      -0.79712672       0.24205125       1.92487064      -0.54863353
H        0.79186393      -0.27999916      -0.32447637       0.31761455      -0.24954614       0.08110470
H       -0.17192007       0.45314916       1.07969801      -0.13579416      -0.08042108      -0.48917873
H       -0.98892593       0.00846477      -0.59547095       0.28621545      -0.16204118       0.77769898
Cl      -0.32165246      -1.93209052       0.77665372      -0.52598966      -2.15524381       0.89205604
6
Properties=species:S:1:pos:R:3:forces:R:3 energy=-26134.733634472872 free_energy=-26134.733634472872 dipole="0.17616529847813914 0.022051570029251948 -0.007152894176140757" pbc="F F F"
C        0.05822534      -0.01426859      -0.08492635       0.87981670      -0.30158922      -0.84940118
Cl       1.97186093       0.36694298       0.55089211       1.95560267       0.36237468       0.50838293
H       -0.16503756      -0.50659600       0.80356675      -0.05210405      -0.61973595       1.02252717
H       -0.15085445       1.00154676      -0.19210622      -0.19863804       1.16714389      -0.01884806
H        0.39012417      -0.54353258      -0.96068262      -0.18198270      -0.14155074       0.12438644
Cl      -1.99369931      -0.36072717      -0.51218784      -2.40269457      -0.46664265      -0.78704731
6
Properties=species:S:1:pos:R:3:forces:R:3 energy=-26135.026422026393 free_energy=-26135.026422026393 dipole="0.3301198017377854 0.3869695036766951 0.23864426745980022" pbc="F F F"
C       -0.09380079       0.22336064       0.18742720       1.87543067      -0.59602437       0.89569754
Cl       1.69827814       1.20020761       0.59076589      -0.15336645       0.43330139       0.22694686
H        0.21635469      -0.66874206       0.70389926      -0.12432850       0.17235852      -0.08562462
H       -0.85511695       0.80526317       0.62463789      -0.50235989       0.73727692       0.48711434
H        0.01462202       0.24507172      -0.84774180       0.34769421       0.25555179      -1.11244836
Cl      -1.64874993      -1.28673596      -0.66794022      -1.44307003      -1.00246426      -0.41168576
6
Properties=species:S:1:pos:R:3:forces:R:3 energy=-26134.974178609573 free_energy=-26134.974178609573 dipole="0.3405120457415573 0.2524714906974678 -0.009476225552032879" pbc="F F F"
C        0.10256125       0.00704068      -0.07169610       0.46804859       0.48755114      -0.17064433
Cl       1.60259979       1.40073410       0.15916215       0.45511829       0.31261304      -0.16961856
H       -0.62259522       0.53501267       0.52190267       0.40975148       0.11944545      -0.02662095
H       -0.05392417      -0.00949086      -1.15123138       0.49922160       0.39380928       0.53829649
H        0.63012076      -0.83129192       0.36007051      -0.01333388       0.35205055      -0.03272160
Cl      -1.63602978      -1.39442520      -0.12721422      -1.81880607      -1.66546945      -0.13869104
6
Properties=species:S:1:pos:R:3:forces:R:3 energy=-26134.489910432298 free_energy=-26134.489910432298 dipole="-0.2065489510164513 -0.03357478955946609 -0.08533763744657895" pbc="F F F"
C       -0.03376487      -0.01466688      -0.12679967      -0.25732881      -0.63304676      -1.72670036
Cl      -2.01230594      -0.28272215      -0.11225362      -3.04997919      -0.34420741      -0.34173940
H        0.09627560      -0.20128289      -1.21800345      -0.03235080       0.07399274       1.27321759
H       -0.16304548       1.00648944       0.13259531       0.11081351       0.23879209       0.48461081
H        0.01890872      -0.85162742       0.54137834       0.47123174       0.32284655       0.13129568
Cl       2.02510689       0.28901146       0.17068444       2.75761355       0.34162278       0.17931568
6
Properties=species:S:1:pos:R:3:forces:R:3 energy=-26134.68714044994 free_energy=-26134.68714044994 dipole="-0.07607255677662429 0.08911770107714147 -0.16170355260589186" pbc="F F F"
C        0.09485328       0.11487329      -0.17447102      -0.64894806      -0.14004453       0.30943614
Cl      -1.77703475       0.40546738      -0.99456256      -1.56413024       0.57814911      -1.20466095
H        0.70686877       0.71260212      -0.79418339       0.22665553       0.54313912      -0.62284979
H       -0.27519296       0.54207587       0.72291118      -0.15832766      -0.00544010       0.24691289
H        0.01024088      -0.91359282      -0.40921045      -0.04627175      -0.44134226       0.07718284
Cl       1.73233137      -0.45408676       1.06733824       2.19102219      -0.53446134       1.19397887
6
Properties=species:S:1:pos:R:3:forces:R:3 energy=-26134.885754315455 free_energy=-26134.885754315455 dipole="0.07250787938348267 -0.422866678972378 0.1714884937924412" pbc="F F F"
C       -0.03109602      -0.07336200       0.08614151       2.51154788      -0.29242816       0.99159357
Cl       0.40241277      -1.97720458       0.61161398       0.26875686      -0.98068911       0.36251436
H        0.61320076      -0.01066651      -0.76356984      -0.22357580      -0.58111635      -0.30335566
H       -1.05276307      -0.23316444       0.04615676      -1.51909920      -0.04462990      -0.30645964
H        0.40407125       0.43674930       0.94108738      -0.41350610      -0.43941302      -0.05783012
Cl      -0.39086780       1.99657522      -0.64716008      -0.62412364       2.33827654      -0.68646251
6
Properties=species:S:1:pos:R:3:forces:R:3 energy=-26135.03418124808 free_energy=-26135.03418124808 dipole="-0.22158491395918511 0.06504334745626877 -0.40226550271316835" pbc="F F F"
C       -0.04778104       0.09209458      -0.07468576      -0.13597163      -0.17193134      -1.18116869
Cl      -1.07756175       0.11545237      -1.85524902      -0.36119477       0.05056694      -0.76466747
H        0.74765739      -0.53825028      -0.39163385       0.16324611      -0.29732359      -0.37398533
H        0.19740341       1.14396183      -0.10745771      -0.44361657      -0.18089774       0.59137678
H       -0.83746208      -0.40890080       0.45151880      -0.04121611       0.57405790       0.21606429
Cl       1.09069119      -0.15225161       1.88190640       0.81875297       0.02552784       1.51238042
6
Properties=species:S:1:pos:R:3:forces:R:3 energy=-26134.811695575794 free_energy=-26134.811695575794 dipole="-0.3215887025591358 -0.008837193798442037 0.21098040903859785" pbc="F F F"
C       -0.07840802       0.14801013       0.09095401      -0.78678171      -1.66820593      -0.47932832
Cl      -1.74255728      -0.53017943       1.02992217      -1.43794051      -0.26278315       1.04241063
H        0.23871795      -0.90070636      -0.09437587      -0.39142626       1.45234326       0.26783032
H       -0.67550544       0.67156909      -0.65912475       0.74158543      -0.23897945       0.26145551
H        0.33923380       0.70439874       0.90717474       0.06430413      -0.01267713       0.03252062
Cl       1.77189700       0.46651756      -1.06510841       1.81025892       0.73030238      -1.12488876
6
Properties=species:S:1:pos:R:3:forces:R:3 energy=-26134.655890764265 free_energy=-26134.655890764265 dipole="-0.008461612919130404 0.0994058903201142 -0.038875072422181994" pbc="F F F"
C        0.05702203       0.05488546      -0.08899399      -0.17721851       0.26874529      -0.58113382
Cl      -1.00304507       1.82352372       0.12372904      -0.78541158       2.10537565       0.29794696
H       -0.82425865      -0.23942302      -0.66460256       1.01353095      -0.49823405       0.28415865
H        0.93436732       0.49142216      -0.57383304      -0.71258831      -0.13616721       0.16269479
H        0.11866349      -0.12449411       0.95819122      -0.39837972       0.49897970       0.28471972
Cl       0.97722013      -1.84574528      -0.08560794       1.06006716      -2.23869940      -0.44838629
6
Properties=species:S:1:pos:R:3:forces:R:3 energy=-26134.859565907667 free_energy=-26134.859565907667 dipole="0.2649807705750113 -0.025470868154866995 0.00535607772026613" pbc="F F F"
C        0.11535510      -0.13325954      -0.13136705       0.25402688      -2.40916678       2.26110518
Cl       2.01021114       0.43811549       0.63983948       0.94184225      -0.10764021      -0.06597190
H        0.16054805      -1.25506573      -0.02218569       0.33151372       1.78059137      -0.22789746
H       -0.27500221       0.42119745       0.66957790      -0.39919866       0.27517989       0.56838863
H        0.18989969       0.33277430      -1.03951981       0.49793638       0.80589836      -1.96762592
Cl      -2.05144046      -0.37871681      -0.58418040      -1.62612056      -0.34486263      -0.56799852
6
Properties=species:S:1:pos:R:3:forces:R:3 energy=-26134.986228168287 free_energy=-26134.986228168287 dipole="-0.24268064918502075 -0.0054719357787469764 -0.2969895067474082" pbc="F F F"
C       -0.14011246      -0.07361665      -0.00525385       1.53941244       2.11876611      -1.78905220
Cl      -1.11482939       0.18668241      -1.83784741      -0.56628992       0.00207888      -0.32393137
H        0.75581910       0.44471035      -0.38656968      -0.96744007      -0.58241007       0.32666785
H       -0.75733912       0.47185791       0.65026199      -0.87727539       0.37548799       0.13557464
H       -0.15272614      -1.10781998      -0.02546549      -0.09333612      -1.62643979       0.05638127
Cl       1.16668753      -0.15630183       1.83285366       0.96492906      -0.28748312       1.59435981
6
Properties=species:S:1:pos:R:3:forces:R:3 energy=-26134.769525838077 free_energy=-26134.769525838077 dipole="-0.4052545458992535 -0.20704055399917906 0.2137243288739145" pbc="F F F"
C       -0.05933088      -0.19364852      -0.01359562      -1.03084156       0.53221274       1.40461616
Cl      -1.73610728      -0.49524001       1.04813206      -0.87291921      -0.42406812       0.33309527
H       -0.03642998      -1.01775481      -0.64914663       0.02425927      -1.45483472      -0.49907788
H       -0.34328938       0.68643864      -0.50520267      -0.82515879       0.85045601       0.04774247
H        0.58130125      -0.11634950       0.83305065       0.08356747      -0.17130448       0.19631027
Cl       1.75047762       0.57358019      -1.03438972       2.62109282       0.66753858      -1.48268630
6
Properties=species:S:1:pos:R:3:forces:R:3 energy=-26135.033182642106 free_energy=-26135.033182642106 dipole="-0.01172287756258267 -0.4229398811142697 -0.2699914400421577" pbc="F F F"
C        0.10000930      -0.18176820       0.03040963      -0.25430849      -0.83470322      -0.63367710
Cl      -0.30774427      -1.58369876      -1.39868342       0.04817155      -1.03711402      -0.64518416
H        0.47920375      -0.84288308       0.82043766      -0.16694149       0.61269013      -0.54019693
H        0.77376673       0.36740129      -0.61221023      -0.11558572      -0.11370295       0.43993277
H       -0.93908346       0.08594197       0.03898251       0.21809383       0.22406054       0.28324778
Cl       0.26493440       1.65636094       1.38135090       0.27057033       1.14876953       1.09587764
6
Properties=species:S:1:pos:R:3:forces:R:3 energy=-26134.588623184358 free_energy=-26134.588623184358 dipole="-0.16730267983143834 -0.20932930840695574 -0.3479629603516118" pbc="F F F"
C       -0.05906050      -0.17023083      -0.00357117      -0.16090333      -0.56556135      -0.93200620
Cl      -0.69435361      -0.59909846      -1.83170738      -0.55099309      -0.70545472      -1.34589993
H        0.99034777      -0.17795649      -0.20675307      -0.07581289       0.12130371      -0.53180991
H       -0.63405653       0.70949520       0.08648375      -0.19675785       0.57325737      -0.41302771
H       -0.41590168      -0.98715689       0.57933325      -0.27733963      -0.58055377      -0.09903117
Cl       0.71605919       0.66973050       1.81986414       1.26180678       1.15700876       3.32177491
6
Properties=species:S:1:pos:R:3:forces:R:3 energy=-26134.75413562237 free_energy=-26134.75413562237 dipole="-0.050219718985982535 0.07959530322595526 -0.07131656230889709" pbc="F F F"
C       -0.00312197       0.12117619       0.00696728       2.34937359       0.28758786      -1.91998586
Cl      -1.27375460       0.33003541      -1.63604966      -1.02843557       0.45904366      -1.38444086
H        0.44096085      -0.75488501      -0.45736781      -0.53945342       0.44587025       0.22448295
H        0.53441541       1.06931921      -0.10651707      -0.53126086      -0.57091067      -0.14209312
H       -0.81201796       0.09825206       0.63345151      -1.58500937      -0.28880836       1.30098134
Cl       1.27016738      -0.38282624       1.63171095       1.33478564      -0.33278275       1.92105554
6
Properties=species:S:1:pos:R:3:forces:R:3 energy=-26134.757858259 free_energy=-26134.757858259 dipole="-0.20244688252408347 -0.3364863549835218 -0.17292232854921047" pbc="F F F"
C        0.09689684      -0.15827139      -0.10453419      -1.64854333      -0.11629607       0.68771889
Cl      -1.38661713      -1.38176176      -0.70444750      -0.75155426      -1.17786427      -0.81646251
H        0.19263475      -0.66401961       0.83544258       0.23462571       0.05624636       0.08821293
H        0.87639737      -0.29605771      -0.81523401      -0.06060115      -0.15711113      -0.61503026
H       -0.57537832       0.68769788      -0.10662404       0.35958935      -0.38529355      -0.38572973
Cl       1.33975025       1.44313146       0.74232245       1.86648369       1.78031866       1.04129067
6
Properties=species:S:1:pos:R:3:forces:R:3 energy=-26134.83873604264 free_energy=-26134.83873604264 dipole="0.25416020418688245 0.17364280914234248 0.009596553041234149" pbc="F F F"
C        0.08078216       0.02819480      -0.10743739       0.54598991       0.96172497      -0.25951355
Cl       1.62034784       1.26507381       0.47847219       1.04236924       0.68755982       0.31260125
H       -0.66577395       0.73743276       0.17893255       0.05488748       0.23999730      -0.39668377
H        0.47734614      -0.11366985      -1.10274688      -0.52992105       0.18260210       0.07083139
H        0.26002667      -0.73554384       0.57587828       0.73757403      -0.67612363       1.00825958
Cl      -1.64975393      -1.27144821      -0.43217741      -1.85089961      -1.39576055      -0.73549491
6
Properties=species:S:1:pos:R:3:forces:R:3 energy=-26134.54279875886 free_energy=-26134.54279875886 dipole="-0.12626022720320346 -0.0678628232137097 -0.42104408576539964" pbc="F F F"
C        0.03903774      -0.09366794      -0.09896485       0.38628061       1.46717798      -1.01447731
Cl      -0.73713120      -0.07324635      -1.90740383      -0.62362015      -0.42854997      -1.98198783
H       -0.54388047      -0.85967198       0.33276395      -0.73578803      -0.46808011      -0.01285842
H        1.07739613      -0.41980335      -0.32721544      -1.11631176       0.81710033      -0.03571022
H       -0.29194839       0.96964354       0.04265153       0.91272121      -1.60204875      -0.01884338
Cl       0.71703580       0.11379236       1.93956409       1.17671812       0.21440052       3.06387716
6
Properties=species:S:1:pos:R:3:forces:R:3 energy=-26134.55589306269 free_energy=-26134.55589306269 dipole="0.07062989666869735 0.1407830517674484 -0.08609894088644265" pbc="F F F"
C        0.08651166       0.00306171      -0.08275375       0.83756624      -0.13457121      -1.32398046
Cl       0.21432868       1.98033413      -0.52940825       0.63794671       2.59556065      -0.61198196
H        0.93892829      -0.33598121      -0.69332765      -0.74253363       0.38206242       0.29549478
H        0.34259776       0.16987580       0.93457637      -0.45587075       0.35001726       0.34404376
H       -0.87272800       0.09082104      -0.58022048       0.16564474      -0.79601235       0.78461560
Cl      -0.25526408      -1.97923081       0.56708494      -0.44275331      -2.39705677       0.51180828
6
Properties=species:S:1:pos:R:3:forces:R:3 energy=-26134.5735889864 free_energy=-26134.5735889864 dipole="0.11123692852947284 0.066594766976757 -0.27993459251441255" pbc="F F F"
C       -0.04358499       0.23232175      -0.12755604       0.76262755      -2.03614685       0.10458134
Cl       1.04737357      -0.40496967      -1.74728825       0.52010539       0.06535394      -1.14918285
H        0.74553802       0.76444734       0.35903474       0.21996343       0.25944592      -0.29131887
H       -0.84590906       0.76144393      -0.59408685      -0.08758678       0.05795724      -0.32845738
H       -0.19079985      -0.79128224       0.24296174       0.32905451       0.79968503      -1.27801125
Cl      -1.02432704       0.30536734       1.79028127      -1.74416411       0.85370472       2.94238902
6
Properties=species:S:1:pos:R:3:forces:R:3 energy=-26134.700973440882 free_energy=-26134.700973440882 dipole="-0.32238822635220976 0.11082100370880504 -0.2124574966238498" pbc="F F F"
C       -0.13591100       0.02860331       0.04984672      -0.01700429       0.13443522      -1.43830178
Cl      -1.48403053       0.54020837      -1.32412624      -1.60523807       0.41759326      -1.05892964
H       -0.59755428      -0.83729739       0.46339181      -0.51030727       0.00460578       0.09530891
H        0.59772790      -0.11938951      -0.70852915       0.10938999      -0.14288724      -0.11253593
H       -0.10916866       0.97761411       0.51972722      -0.19376836       0.30552713       0.55267339
Cl       1.53317845      -0.55049466       1.29942961       2.21692800      -0.71927415       1.96178504
6
Properties=species:S:1:pos:R:3:forces:R:3 energy=-26134.655288907754 free_energy=-26134.655288907754 dipole="0.1419715186935779 -0.00025271386867686796 0.055702311864573056" pbc="F F F"
C        0.02633522      -0.06558879       0.05745287       1.12609231       3.52283943      -3.87232953
Cl       1.97907290       0.40779207       0.59012532       1.71449278       0.33321165       0.86902435
H       -0.08614543      -0.82391987       0.69651523      -0.26024833      -2.53026814       2.37246616
H       -0.33563843       0.94707589       0.25634120       0.50149912      -0.78779685       0.13972270
H        0.46586280      -0.24664113      -0.95411249      -1.17767479       0.01110188       1.18902294
Cl      -1.98924904      -0.38205836      -0.60955551      -1.90416109      -0.54908798      -0.69790662
6
Properties=species:S:1:pos:R:3:forces:R:3 energy=-26134.901225731657 free_energy=-26134.901225731657 dipole="0.01916902799021043 -0.03492992984407524 -0.017150097337859792" pbc="F F F"
C        0.02640900      -0.07391282      -0.02132459       1.96060829      -0.91336889      -1.38782988
Cl      -1.06176673       0.11906599      -1.85771858      -0.89251870       0.06599851      -1.37328396
H        0.02236890       0.95424883       0.05667699      -0.28182987       1.64532286       0.21308772
H       -0.71922294      -0.67561532       0.38450959      -0.89636945      -0.71853129       0.42669712
H        0.85702540      -0.49491380      -0.61480805      -0.68424263       0.11408175       0.94902900
Cl       1.04826458      -0.08787339       1.86988050       0.79435236      -0.19350294       1.17229999
6
Properties=species:S:1:pos:R:3:forces:R:3 energy=-26135.042639778527 free_energy=-26135.042639778527 dipole="-0.000963807387270662 -0.36692408149509537 -0.22382786014172934" pbc="F F F"
C        0.09650445      -0.15736641       0.03301204      -0.42641489      -0.88923378      -0.58769916
Cl      -0.30919318      -1.59376693      -1.40319250       0.08557109      -0.69861559      -0.53351982
H        0.41423926      -0.83714532       0.79100417       0.09177558      -0.07739831       0.39983299
H        0.85129138       0.35648114      -0.50401982       0.17004749       0.20365539      -0.46202286
H       -0.91856166       0.15139306       0.03061585      -0.20877512       0.25388062      -0.04077859
Cl       0.26663014       1.65644770       1.38297675       0.28779584       1.20771166       1.22418744
6
Properties=species:S:1:pos:R:3:forces:R:3 energy=-26134.674457509474 free_energy=-26134.674457509474 dipole="0.13972255894121283 0.10283811201156563 0.10419914733030046" pbc="F F F"
C       -0.03289026       0.14548486       0.12914870       0.88136780      -2.54753145       1.16285129
Cl       1.98803127       0.37309871       0.56919518       1.54403261       0.61115569       0.42692440
H        0.05602427      -0.86594242       0.60466227      -0.58938743       1.65557205      -0.56846992
H       -0.38632881       1.01886983       0.58628156      -0.42018926       0.66655791       0.99735739
H        0.11583671       0.23855139      -0.88638530       0.81272140       0.02525761      -1.58953393
Cl      -1.97078928      -0.43352266      -0.62161267      -2.22854512      -0.41101181      -0.42912923
6
Properties=species:S:1:pos:R:3:forces:R:3 energy=-26134.35517215552 free_energy=-26134.35517215552 dipole="0.02651392617954612 0.08020881117514898 -0.11853432883074275" pbc="F F F"
C        0.04246778       0.16969378      -0.21168052       1.77903031      -2.30116800      -2.59362480
Cl      -1.91110363      -0.36460760      -0.65464468      -2.87651973      -0.13375161      -1.20645036
H        0.43129647       0.58506545      -1.15541358      -0.66788916      -0.17905807       0.50150357
H       -0.33711261       0.83021484       0.46262650      -0.79636930       1.19060836       1.81615414
H        0.09180313      -0.92361539      -0.18267885       0.51577773       1.08316741       0.69496937
Cl       1.89142646       0.29313256       0.75125863       2.04597015       0.34020192       0.78744809
6
Properties=species:S:1:pos:R:3:forces:R:3 energy=-26134.72208336152 free_energy=-26134.72208336152 dipole="-0.35710283398930653 -0.04142357505129556 -0.07638779769532418" pbc="F F F"
C       -0.05735034      -0.00457541      -0.13027932      -1.14980602       0.99458938       2.83488324
Cl      -2.05711006      -0.29382176      -0.12109209      -1.43398346      -0.17023727      -0.23461978
H        0.10838876      -0.16282460      -1.14012263       0.26712664      -0.45568189      -1.46402911
H       -0.07697824       1.01668123       0.25748934      -0.38107748      -0.54825448      -0.56180965
H        0.12856418      -0.72114921       0.65528480      -0.27384243      -0.20693172      -0.63638954
Cl       2.07199244       0.29159852       0.17169723       2.97158276       0.38651597       0.06196483
6
Properties=species:S:1:pos:R:3:forces:R:3 energy=-26134.4578460894 free_energy=-26134.4578460894 dipole="-0.09405240768488865 -0.0008033328106355455 -0.1386464278700507" pbc="F F F"
C       -0.01954633      -0.04649787      -0.03507422      -0.33232761      -2.26484917      -0.69788473
Cl      -1.07427706       0.29577022      -1.70963727      -1.39850325       0.45024327      -2.60968623
H       -0.39900681       0.83409768       0.34795510      -0.26002970       1.47358087       0.76254751
H       -0.65935951      -0.94671492       0.15467347       1.40016594       0.93129245      -0.03876806
H        0.94647627      -0.07082243      -0.54001757      -0.78645409      -0.13002352       0.10020009
Cl       1.08408118      -0.27480003       1.72258408       1.37714872      -0.46024389       2.48359142
6
Properties=species:S:1:pos:R:3:forces:R:3 energy=-26134.40118681982 free_energy=-26134.40118681982 dipole="-0.052017326561786946 0.1395524152385863 -0.27836414431060963" pbc="F F F"
C        0.23319662       0.17548178      -0.26144542      -1.17302947      -1.27338180      -0.35308298
Cl      -1.52710301       0.51428013      -1.25041585      -1.31630841       0.93976268      -1.44814316
H       -0.25660425      -0.75565897       0.01123632       0.46361824       0.74355173      -0.25942374
H        0.94042692       0.12714056      -1.09313308      -0.20044990       0.20688411       0.50615915
H        0.17463462       1.01977653       0.39466332      -0.20369775       0.22495533      -0.41050216
Cl       1.42368271      -0.58486123       1.35853863       2.42986730      -0.84177206       1.96499289
6
Properties=species:S:1:pos:R:3:forces:R:3 energy=-26135.003206252237 free_energy=-26135.003206252237 dipole="0.2716432757009453 -0.05206928488456058 0.23013699448505628" pbc="F F F"
C        0.14474672      -0.02039905      -0.03326679       0.06812778       0.51182055       0.59895049
Cl      -1.36160991       0.34049695      -1.67421844      -1.07037379       0.35534180      -1.48075303
H        0.93028429       0.30565420      -0.72420619      -0.32079947      -0.43702874       0.52873728
H       -0.40105675       0.81196284       0.44569875       0.37952991      -1.14706276      -0.35287932
H       -0.27113745      -1.03331348      -0.14410308       0.54135468       0.90680986       0.54666397
Cl       1.30522888      -0.33598256       1.69750642       0.40216089      -0.18988071       0.15928060
6
Properties=species:S:1:pos:R:3:forces:R:3 energy=-26134.879019086497 free_energy=-26134.879019086497 dipole="-0.04196903398627403 0.06840994323595213 0.07444986502353128" pbc="F F F"
C       -0.10197089       0.13377728       0.09244229       0.02721473       0.57478850       0.14963598
Cl      -1.13922742       0.22815144      -1.78449344      -1.02816566       0.34482632      -1.40265471
H        0.79095641       0.32227475      -0.46480001      -0.09013616      -0.23821846      -0.03581951
H       -0.62411504       0.96320646       0.54134020       0.19643306       0.12665062      -0.04883035
H       -0.58378454      -0.79688426       0.22642804       0.20049136      -0.70470504      -0.04001428
Cl       1.18563225      -0.28737019       1.74455786       0.69416267      -0.10334194       1.37768288
6
Properties=species:S:1:pos:R:3:forces:R:3 energy=-26134.50493620368 free_energy=-26134.50493620368 dipole="0.19233287936844878 -0.12273698015223129 0.21836347201753664" pbc="F F F"
C        0.03589614      -0.14333708       0.01321786       1.34348222      -1.60783794      -0.49024035
Cl      -1.24319766       0.38881536      -1.58467803      -1.94695136       0.60131008      -2.65232672
H       -0.43234459      -1.12875758      -0.00481530       0.27474679       0.53555672       0.41007472
H        0.88069586      -0.01307342      -0.65076970      -0.42139811       0.10132566       0.05440137
H       -0.41550238       0.67834067       0.44857430      -0.71512795       1.04824071       0.64737062
Cl       1.23010147      -0.32707149       1.58608584       1.46524842      -0.67859523       2.03072036
6
Properties=species:S:1:pos:R:3:forces:R:3 energy=-26134.83088558441 free_energy=-26134.83088558441 dipole="-0.02732644233149379 -0.004617643202734134 0.026525455363432676" pbc="F F F"
C       -0.05448771       0.02541143       0.04411078      -0.08079869      -0.19139630      -0.65709829
Cl       0.35024449       1.92511290      -0.78105404       0.44952410       1.99782613      -0.76107698
H        0.45366424      -0.42498462      -0.80524024      -0.36091693       0.36546361       0.41872778
H        0.52167780       0.26451168       0.91669106      -0.12007857       0.06850695      -0.00041310
H       -1.11146944       0.29301706      -0.02487509       0.60590754      -0.60369306       0.25178666
Cl      -0.32791252      -1.93749149       0.76364691      -0.49363745      -1.63670733       0.74807394
6
Properties=species:S:1:pos:R:3:forces:R:3 energy=-26134.545785133832 free_energy=-26134.545785133832 dipole="0.32223358595432106 -0.09359809211594887 0.3307769414063445" pbc="F F F"
C        0.00820129       0.01948431       0.13310737       2.40074131      -0.79496675      -1.81721130
Cl      -1.49542544       0.47254494      -1.34529995      -2.68581043       0.79261417      -2.23992730
H       -0.72102958      -0.61674999       0.57189929      -0.32657036      -0.02996820       0.28470782
H        0.51724661      -0.35674415      -0.81558872      -0.82816192       0.59031777       1.90958693
H        0.01342234       1.09045928       0.25035936       0.05735497      -0.25031671       0.45499207
Cl       1.49805952      -0.48247236       1.30001149       1.38244643      -0.30768027       1.40785179
6
Properties=species:S:1:pos:R:3:forces:R:3 energy=-26134.511896258227 free_energy=-26134.511896258227 dipole="0.0595003749287757 0.2356624417216899 0.21261045212150004" pbc="F F F"
C       -0.13886604       0.05999139       0.24090304       0.60357658       1.69020053      -2.07312798
Cl      -1.06017498      -1.60740286      -0.80887402      -1.34380940      -1.64664370      -0.68082378
H        0.41278994       0.11823156      -0.67337311      -0.25957513      -0.78014845       0.12119433
H       -0.98869955       0.67527136       0.31326620      -1.10630684       0.24649119      -0.18596557
H        0.03349670      -0.55054595       1.04555796       0.82007248      -1.38013491       1.45032967
Cl       1.12264810       1.58016852       0.70776200       1.28604231       1.87023535       1.36839332
6
Properties=species:S:1:pos:R:3:forces:R:3 energy=-26135.020889834388 free_energy=-26135.020889834388 dipole="0.3436919795519863 -0.10484479909079546 0.29427581774777667" pbc="F F F"
C        0.05476351      -0.05644902       0.06812651       0.30033797      -1.16803036       0.76019082
Cl      -1.62360734       0.42461097      -1.40639792      -1.15895088       0.39621931      -0.99737813
H        0.52231793       0.82344036      -0.23610469      -0.07467728       1.50939298      -0.19778851
H       -0.74096938      -0.09870049       0.81906498       0.60959849       0.02071294      -0.71207822
H        0.25114126      -0.83543275      -0.65350977      -0.21874441      -0.35817600       0.63794152
Cl       1.60412880      -0.40233769       1.38532166       0.54243611      -0.40011887       0.50911252
6
Properties=species:S:1:pos:R:3:forces:R:3 energy=-26134.920069932945 free_energy=-26134.920069932945 dipole="0.30054094042250107 0.32051574708041425 -0.2118225178385147" pbc="F F F"
C        0.04090429       0.06542891      -0.05893488       1.80994488      -0.83580838      -0.56923924
Cl      -1.38582711      -1.41337178       0.86027486      -1.55938532      -1.50574373       1.03204531
H       -0.78839705       0.20695780      -0.68334177      -0.70069187       0.73753922      -0.78927983
H        0.01697247       0.52880435       0.90790159       0.21547840      -0.30515652       0.05235597
H        0.54735422      -0.90162322      -0.30679042      -0.06298577       1.60484674       0.66409023
Cl       1.37833942       1.39591963      -0.83796865       0.29763968       0.30432267      -0.38997244
6
Properties=species:S:1:pos:R:3:forces:R:3 energy=-26134.90932763607 free_energy=-26134.90932763607 dipole="-0.10729418577001598 0.23910783092967183 -0.4335050766349475" pbc="F F F"
C       -0.05708743       0.00832266      -0.10601364      -2.63161682       0.89096131      -1.02363005
Cl       0.30521351      -1.07522982       1.85607700       0.09025391      -0.97387954       1.58266043
H        0.91676602       0.22949349       0.09306459       2.36719004       0.10234742      -0.17711171
H       -0.49577058      -0.87193552      -0.50867729       0.47492528      -0.66586031       0.02271874
H       -0.74983501       0.63510801       0.39665057      -0.35489356       0.11500373       0.61955848
Cl      -0.27652106       1.07261852      -1.81961879       0.05414115       0.53142740      -1.02419590
6
Properties=species:S:1:pos:R:3:forces:R:3 energy=-26134.748361651866 free_energy=-26134.748361651866 dipole="0.1089642706340871 -0.10701297200430977 0.07601771285052146" pbc="F F F"
C        0.04440949      -0.16946650      -0.04009984       0.99736610       0.56471216      -0.21023834
Cl      -1.27831376       0.39888091      -1.61861218      -1.37138268       0.34023348      -2.02146994
H       -0.50312624      -1.08683193       0.03428411      -0.06730170      -0.00508608       0.57158034
H        0.90973687      -0.19075387      -0.69908722      -0.47840796       0.11131323       0.15182525
H       -0.26903865       0.78269942       0.34315911      -0.07712000      -0.41944352       0.13263733
Cl       1.25935537      -0.32739127       1.64134437       0.99684623      -0.59172927       1.37566535
6
Properties=species:S:1:pos:R:3:forces:R:3 energy=-26134.817931429698 free_energy=-26134.817931429698 dipole="-0.05251097640196517 0.1461136808264813 0.0031988947590607894" pbc="F F F"
C       -0.05744018       0.04040723      -0.07674656       2.36487947       0.97973520      -0.05638595
Cl       0.62122064      -1.95319969      -0.57796046       0.35511701      -1.69916532      -0.43989519
H        0.30171316       0.32721045      -1.05632056      -0.72055118       0.15931450       0.16814001
H       -1.01342109      -0.26442156       0.17436190      -1.33044810      -0.91913189      -0.04224741
H        0.71757161       0.05756962       0.66499451      -0.17386212      -0.32466717       0.09415376
Cl      -0.60192577       1.93608678       0.61013261      -0.49513509       1.80391467       0.27623478
6
Properties=species:S:1:pos:R:3:forces:R:3 energy=-26134.598886144835 free_energy=-26134.598886144835 dipole="-0.0673134409588921 0.11311151710162962 0.1393222464357883" pbc="F F F"
C       -0.11711924       0.04815359       0.01289521       0.15946770      -0.57458709       1.00342835
Cl      -0.06873039      -1.11271385      -1.76140092      -0.24411592      -1.49744243      -2.23427126
H       -0.93007536       0.56965618      -0.34562757      -1.38447137       1.36911999      -0.67494392
H       -0.45223723      -0.81396693       0.55786283       0.83582555      -0.27887646      -0.04461865
H        0.83535484       0.34750315      -0.33203556       0.62998837      -0.15763995       0.34749258
Cl       0.12396459       1.09346447       1.76043828       0.00330567       1.13942594       1.60291290
6
Properties=species:S:1:pos:R:3:forces:R:3 energy=-26134.819306182686 free_energy=-26134.819306182686 dipole="0.20570128585582356 0.17965404899593185 -0.25435734598161475" pbc="F F F"
C       -0.05101183       0.09963337      -0.11859094       1.34296251      -0.38358523      -0.00607834
Cl      -1.44684864      -0.88296973       1.27075982      -1.43358065      -0.86683886       1.19840093
H        0.19319422       0.75653610       0.71156134      -0.38545492      -0.41115655      -0.36078812
H        0.45463186      -0.86109754      -0.21676277      -0.76018469       0.38231094       0.50654935
H       -0.87583435       0.29700923      -0.77750955       0.04111615       0.19916938       0.01824982
Cl       1.47061551       0.84374028      -1.22254069       1.19514161       1.08010032      -1.35633364
6
Properties=species:S:1:pos:R:3:forces:R:3 energy=-26134.737178249798 free_energy=-26134.737178249798 dipole="0.129147740332961 -0.05356237690536883 0.15551910934704447" pbc="F F F"
C       -0.02426062       0.00774920       0.10701259       1.87169610       0.73059643      -1.00227667
Cl      -1.56794677       0.63119539      -1.25598926      -1.71043963       0.77578662      -1.08878828
H       -0.56882808      -0.84588286       0.27516780      -1.16183486      -1.51303224       0.55374050
H        0.58229835       0.01360357      -0.78296063      -0.04532655       0.20146953       0.31516222
H       -0.07507080       0.85391544       0.74121549      -0.56584590       0.62014603      -0.04304250
Cl       1.57791821      -0.63443615       1.21309453       1.61175084      -0.81496637       1.26520473
6
Properties=species:S:1:pos:R:3:forces:R:3 energy=-26134.735170760596 free_energy=-26134.735170760596 dipole="0.129390022531286 0.03357460646415124 0.015442999702972998" pbc="F F F"
C        0.10207047       0.11051816      -0.07539055       0.26163699      -0.96062649      -0.20698392
Cl      -1.65929038       0.38989160      -1.22860191      -2.07605219       0.54568926      -1.62438032
H       -0.50762149      -0.58652813       0.42275479      -0.26841996      -0.27639273       0.50963768
H        0.58657059      -0.19185389      -0.97050621       0.56222756      -0.31737952      -0.17346354
H        0.07432171       1.13896087       0.10449876       0.22180981       1.05511058       0.77420239
Cl       1.62034918      -0.43758968       1.26674901       1.29879779      -0.04640111       0.72098771
6
Properties=species:S:1:pos:R:3:forces:R:3 energy=-26134.764859638664 free_energy=-26134.764859638664 dipole="-0.08102866119405784 -0.029199474593474297 0.06776941232332376" pbc="F F F"
C       -0.06797628       0.01504343       0.15037941       0.89677661      -1.52861477       0.43763867
Cl       1.68024542       1.23219527       0.34007039       1.34325876       0.95662967       0.35138450
H        0.51348624      -0.90378476       0.19344734       0.07030084       0.84256698      -0.01951480
H       -0.48092443       0.39698356       1.04312127      -0.42885982       0.17527068       0.65040539
H       -0.27359090       0.49271655      -0.74371585       0.09810890       0.82558077      -1.23130293
Cl      -1.65036050      -1.23689173      -0.40503521      -1.97958529      -1.27143332      -0.18861083
6
Properties=species:S:1:pos:R:3:forces:R:3 energy=-26134.615486698014 free_energy=-26134.615486698014 dipole="-0.13500950032481915 -0.02936238497280964 -0.02322193697807131" pbc="F F F"
C       -0.06243021      -0.09437065       0.06447143      -0.23307576      -0.96716787      -0.48595086
Cl       1.85986136      -0.16419444       0.91078147       2.77496971      -0.36430549       1.29142994
H       -0.00819978       0.88065472       0.40427110      -0.57328580       1.50993379       0.51220830
H        0.40999237      -0.25260042      -0.87922878       0.00644791      -0.52440531      -0.02604848
H       -0.35839054      -0.87894656       0.75740272      -0.21795275       0.25342397      -0.69605488
Cl      -1.83994316       0.20330263      -0.94065653      -1.75710331       0.09252091      -0.59558402
6
Properties=species:S:1:pos:R:3:forces:R:3 energy=-26134.953513023815 free_energy=-26134.953513023815 dipole="-0.521488038148148 0.11153761337064175 -0.14070434353668076" pbc="F F F"
C       -0.12482639      -0.06527415      -0.03618344      -1.70111810      -0.71607344       0.16122016
Cl       1.97511900      -0.62442226       0.55090848       2.42226477      -0.89995823       0.77403043
H       -0.22616201       0.09086587       1.01697418      -0.01223482       0.18952280       0.07655894
H        0.50805157       0.55589270      -0.59437905       0.00141264       0.87020808      -0.67207402
H       -0.22282586      -1.09707817      -0.36061219      -0.12596222       0.41842848      -0.03673532
Cl      -1.93450536       0.65934271      -0.54041143      -0.58436227       0.13787230      -0.30300019
6
Properties=species:S:1:pos:R:3:forces:R:3 energy=-26134.383269277303 free_energy=-26134.383269277303 dipole="0.03566783994699157 0.029167282097869646 0.057662790131422025" pbc="F F F"
C        0.00072503       0.08733002       0.04509683      -0.63634933      -2.98327210       0.05011679
Cl      -1.46885969       0.37325414      -1.36139578      -2.15442026       0.63575240      -1.87958581
H       -0.51042053      -0.80929847       0.39415353       0.09454189       0.60110067      -0.47418774
H        0.68683000       0.03578334      -0.73426580       0.79660290      -0.06557675      -0.97134023
H       -0.17810961       0.96686869       0.51748919      -0.57784399       2.33847990       1.07248800
Cl       1.46866238      -0.40834077       1.34107268       2.47746879      -0.52648412       2.20250898
6
Properties=species:S:1:pos:R:3:forces:R:3 energy=-26134.813607987213 free_energy=-26134.813607987213 dipole="0.42945282964777703 -0.022493450462920703 0.35477281381347286" pbc="F F F"
C        0.13921885       0.11547031       0.03379354       1.14939407      -2.71828200       0.11625447
Cl      -1.52528980       0.28861361      -1.43666462      -2.11425138       0.57357318      -2.08038636
H       -0.57356499       0.58572310       0.62307520      -0.79735359       0.58225811       1.04382361
H       -0.04755226      -0.91454369      -0.30983272       0.38072115       0.91884439       0.70230836
H        0.73371893       0.69940995      -0.60598503       0.57517891       0.64893969      -0.52762615
Cl       1.47491857      -0.33827420       1.43353882       0.80631084      -0.00533337       0.74562607
6
Properties=species:S:1:pos:R:3:forces:R:3 energy=-26134.749541953683 free_energy=-26134.749541953683 dipole="-0.07265531238776345 0.11787407971689434 0.09445622916439646" pbc="F F F"
C       -0.08205569       0.23897696      -0.00219469       0.87360566      -1.83114916       0.54776725
Cl       0.84844867       0.03092799      -1.93920763       0.82149713       0.21992251      -1.77588521
H       -0.94964778      -0.14959896      -0.49602446      -0.04641367      -0.10935375       0.36891030
H        0.74397551      -0.35954605       0.37301731      -0.57608923       0.09449114      -0.72972927
H        0.07998648       1.26813806       0.06279175      -0.11293876       1.39367124       0.09538290
Cl      -0.81707315      -0.13347855       1.94166341      -0.95966112       0.23241803       1.49355404
6
Properties=species:S:1:pos:R:3:forces:R:3 energy=-26134.67702393695 free_energy=-26134.67702393695 dipole="-0.0343212146528776 -0.03130172049338774 0.12076443029485494" pbc="F F F"
C       -0.14949418      -0.05573874       0.16816724       0.04510136       1.67217736       0.72498134
Cl      -1.47925797       0.28663507      -1.44561473      -1.81346243       0.27320283      -1.32321095
H       -0.78833968      -0.64899834       0.80011171      -0.14323751       0.08336740      -0.19488943
H        0.41872192      -0.49711769      -0.58278990       0.62795228      -0.61017188      -0.68169906
H       -0.07631951       1.03318395       0.31645491      -0.28081723      -1.06131506      -0.13359137
Cl       1.54258884      -0.26453878       1.37345948       1.56446354      -0.35726066       1.60840946
6
Properties=species:S:1:pos:R:3:forces:R:3 energy=-26134.607839519125 free_energy=-26134.607839519125 dipole="-0.05333598536949983 -0.04861206009908721 -0.008172964742792988" pbc="F F F"
C       -0.00011377      -0.01824096       0.02583784       0.02577298      -0.37324755       0.85613082
Cl       1.59756700       1.24429780       0.43917739       2.58944603       1.97812073       0.64889919
H       -0.47334150       0.86543517      -0.33610642      -0.63685445      -0.00752703       0.13561116
H        0.64379199      -0.48772909      -0.69066602      -0.11977136      -0.46954424       0.17793860
H        0.04420398      -0.25436785       1.11471853      -0.51897909      -0.08786578      -1.54342820
Cl      -1.60363203      -1.24162454      -0.45043234      -1.33961410      -1.03993613      -0.27515158
6
Properties=species:S:1:pos:R:3:forces:R:3 energy=-26134.737000745354 free_energy=-26134.737000745354 dipole="0.0043602746913131455 0.13016169519859075 0.2603262855257005" pbc="F F F"
C       -0.00153340      -0.06325982       0.12352037      -1.33676781       1.22699950      -0.16543895
Cl      -0.08345424      -1.29290806      -1.64954635      -0.07494773      -1.46930912      -1.89303980
H        0.66355718       0.58452276      -0.41548385      -0.09448282      -0.49965316      -0.29715011
H       -1.09328216       0.05139568       0.02326150       1.06592304      -0.08445243      -0.05168902
H        0.34255117      -0.91998092       0.64167807       0.39159837      -0.26409358       0.49435719
Cl       0.08645252       1.32241860       1.60060264       0.04867695       1.09050880       1.91296070
6
Properties=species:S:1:pos:R:3:forces:R:3 energy=-26134.873622845054 free_energy=-26134.873622845054 dipole="0.10642047186119824 -0.07659480970338792 0.15130602953026734" pbc="F F F"
C       -0.00284097      -0.09060750       0.02821598      -0.31155354       0.86742428       1.00076397
Cl      -1.27778469       0.38974114      -1.64321475      -1.33226735       0.32869996      -1.78301095
H       -0.33750780      -1.09424706      -0.01954127      -0.19551126      -0.53640703       0.16071010
H        0.81031905       0.18608330      -0.58398521       0.42108285       0.30668521      -0.37534740
H       -0.59097073       0.66125902       0.55805495       0.52809655      -0.57058075      -0.26339027
Cl       1.28210705      -0.35202135       1.63494770       0.89015274      -0.39582168       1.26027455
6
Properties=species:S:1:pos:R:3:forces:R:3 energy=-26134.858871270506 free_energy=-26134.858871270506 dipole="0.37740143518635116 -0.1698871426978958 0.1791069125691959" pbc="F F F"
C        0.12582443      -0.18920250      -0.09563812       1.08254988      -0.44619747       0.22883883
Cl      -1.70061949       0.47272884      -1.21903759      -1.86229423       0.57474857      -1.60421547
H        0.59475546       0.64481961      -0.53541708       0.21504597       0.61314678      -0.41647958
H       -0.62848349      -0.01183914       0.60451396      -0.29148514      -0.08818568       1.10376968
H        0.09034409      -1.09602413      -0.68255495       0.35051993      -0.10785054       0.43237743
Cl       1.65637841      -0.39545778       1.26888456       0.50566359      -0.54566166       0.25570911
6
Properties=species:S:1:pos:R:3:forces:R:3 energy=-26134.912593234207 free_energy=-26134.912593234207 dipole="-0.09134114813783083 0.05845399367121423 0.12857286126178402" pbc="F F F"
C       -0.11779295       0.17459625       0.04066469       1.74952184      -0.19299596       0.75551965
Cl       0.61599080       0.52410458      -1.99199627       0.30146427       0.58492016      -1.55349050
H       -0.84725308       0.94600685       0.04227420      -0.27656137       0.50066652      -0.02157512
H       -0.40289606      -0.77090980      -0.34054390       0.06926930      -0.37785243      -0.14272257
H        0.93045907       0.40333352       0.33591213      -1.44083985      -0.39651381      -0.21998095
Cl      -0.56699056      -0.59970779       1.97714811      -0.40285418      -0.11822448       1.18224950
6
Properties=species:S:1:pos:R:3:forces:R:3 energy=-26134.47133916322 free_energy=-26134.47133916322 dipole="-0.32238563179634633 -0.013943199831843644 -0.030502384029046373" pbc="F F F"
C       -0.08759380       0.11025686      -0.08652037      -0.46097731      -1.26285056       1.20717477
Cl       1.99972007       0.43674332       0.01118392       3.24475653       0.76566965      -0.08860730
H       -0.17774740       0.93552224       0.57227386      -0.28033146       0.67047003       0.00202427
H       -0.05339789       0.22688434      -1.14215294       0.07239251      -0.01125797      -0.34501770
H        0.17242797      -0.79961882       0.43597516       0.19680844       0.21694418      -0.65618736
Cl      -1.96837237      -0.48441568       0.02193798      -2.77264871      -0.37897533      -0.11938667
6
Properties=species:S:1:pos:R:3:forces:R:3 energy=-26134.686296473858 free_energy=-26134.686296473858 dipole="0.11131715867389805 -0.11128314898375233 -0.026260891100302438" pbc="F F F"
C        0.12044509      -0.19465886      -0.14507442      -0.01364661       0.50077153       0.58783020
Cl      -1.53555777       0.32405988      -1.39016879      -1.58395332      -0.01517727      -1.56231325
H        0.56812334      -0.99886124      -0.69389510      -0.04301757      -0.09595132      -0.37887225
H        0.39935439       0.82173567      -0.39661237       0.08531835      -0.54188526       0.56275760
H       -0.59374550      -0.47795817       0.60977915      -0.04022410       0.38449790      -0.40474963
Cl       1.48412228      -0.23947957       1.45299145       1.59552325      -0.23225558       1.19534733
6
Properties=species:S:1:pos:R:3:forces:R:3 energy=-26134.943635147938 free_energy=-26134.943635147938 dipole="-0.1993903046840317 -0.06919014994413161 -0.12891757153016298" pbc="F F F"
C        0.00063139      -0.04052903      -0.13244377      -0.11283104      -3.35048672       0.25158024
Cl       2.02773419       0.42120522       0.64412442       1.63843383       0.29636012       0.31804479
H        0.33044596      -1.08632895      -0.39830481      -0.48013266       1.64089121       0.44611393
H       -0.23347663       0.17155970       0.87080827      -0.38844509       0.16882880       0.54225126
H        0.11716905       0.69938991      -0.83856478       0.15522245       1.40077878      -1.19165763
Cl      -2.03403701      -0.40134919      -0.58884172      -0.81224748      -0.15637219      -0.36633260
6
Properties=species:S:1:pos:R:3:forces:R:3 energy=-26134.72300700432 free_energy=-26134.72300700432 dipole="-0.3237666853597796 -0.1616021648982339 -0.03710627166618904" pbc="F F F"
C       -0.18962153       0.11488241      -0.04711721      -1.53787614       1.01774698      -1.06013470
Cl       1.59268693       1.41287806       0.07706476       1.93396356       1.82058373       0.18172618
H       -0.77231681       1.04490622      -0.38859925       0.65482585      -2.07633487       0.85802665
H        0.46848023      -0.30309972      -0.75806962      -0.06923840      -0.58615403      -0.60415953
H        0.05839938      -0.06619017       0.95790107      -0.15853534       0.11385095       0.83449356
Cl      -1.52146140      -1.47101273      -0.05573323      -0.82313953      -0.28969276      -0.20995217
6
Properties=species:S:1:pos:R:3:forces:R:3 energy=-26134.68670460666 free_energy=-26134.68670460666 dipole="-0.0787521159628833 -0.12763811311185427 0.2784979457099463" pbc="F F F"
C        0.05681178      -0.29418377       0.09984232      -1.23171842       0.23531527      -0.05342569
Cl       0.91651786      -0.05050612      -1.90037935       1.31656744      -0.20844033      -2.39967240
H        0.69873879      -1.11303017       0.37465145      -0.30372024      -0.27547281       0.12712523
H        0.50804664       0.65353881       0.16195958       0.06843753       0.63106971       0.11851520
H       -0.83002043      -0.43402592      -0.54190249       0.64516891      -0.00444448       1.22176180
Cl      -0.94647965       0.17558671       1.86670171      -0.49473522      -0.37802737       0.98569588
6
Properties=species:S:1:pos:R:3:forces:R:3 energy=-26134.730361914088 free_energy=-26134.730361914088 dipole="0.10959796193126893 0.0404658891859967 0.12739188907248775" pbc="F F F"
C        0.02265287       0.11967730       0.05951634       0.19503992       2.31006286       1.61931733
Cl      -1.54599743       0.42400537      -1.36640937      -1.68927856       0.67738660      -1.32790218
H        0.50679544       1.05612085      -0.18186095      -0.02673521      -0.39706461      -0.34232387
H       -0.64596403       0.18933175       0.88600730      -0.49033679      -0.18214399       0.02571255
H        0.11708870      -0.73538925      -0.47684074       0.55815067      -2.01451679      -1.14846925
Cl       1.53895012      -0.47905722       1.33978102       1.45315998      -0.39372407       1.17366543
6
Properties=species:S:1:pos:R:3:forces:R:3 energy=-26134.48995891229 free_energy=-26134.48995891229 dipole="0.16671000823491058 -0.04435445954523092 0.14702916851347816" pbc="F F F"
C        0.03238930      -0.01888117       0.02566084       1.70768859      -0.49929258      -1.17901347
Cl      -1.48432167       0.28975213      -1.38028253      -2.38596794       0.36816545      -2.06529820
H        0.48024745      -0.71787675      -0.67895157      -0.13696675       0.49544584       0.29175440
H        0.21565565       1.02382181      -0.07618311       0.06774007       0.24730746       0.17218921
H       -0.64357802      -0.42667085       0.69152411      -1.45855373      -0.29303790       0.87495092
Cl       1.47185985      -0.27992213       1.37339697       2.20605977      -0.31858826       1.90541715
6
Properties=species:S:1:pos:R:3:forces:R:3 energy=-26134.817754635416 free_energy=-26134.817754635416 dipole="-0.02666505548664268 -0.31888961355874373 0.1114361722160855" pbc="F F F"
C        0.05826102      -0.09586918      -0.01479644      -1.53063195      -0.81435591      -0.53388237
Cl       0.35780198       1.91309537      -0.83085001       0.39407789       1.83748880      -0.75160668
H        0.65371767       0.14393123       0.79988293       0.91472789       0.77619546       0.91812992
H       -0.99631523       0.12991187       0.00688687       0.42277219       0.35362586      -0.22601825
H        0.50350061      -0.48004114      -0.90736063       0.03785598      -0.07939523      -0.11707658
Cl      -0.38211688      -1.87475031       0.83872351      -0.23880200      -2.07355897       0.71045396
6
Properties=species:S:1:pos:R:3:forces:R:3 energy=-26134.583719009264 free_energy=-26134.583719009264 dipole="0.28169918313651826 -0.03486424731034563 0.2914404201064243" pbc="F F F"
C        0.06421045       0.09899165       0.07576213       1.07564682      -1.88512960      -0.29160863
Cl      -1.41486813       0.42944989      -1.43698846      -2.34694968       0.92587930      -2.39412683
H       -0.11708343      -0.91411879      -0.29453706       0.47221746       0.73559310       0.43762901
H        0.71749737       0.75728855      -0.45347992       0.04809473       0.10465037      -0.19258678
H       -0.63084176       0.49382924       0.74512515      -0.73984189       0.53851310       0.85701799
Cl       1.39397785      -0.47257214       1.41140133       1.49083257      -0.41950626       1.58367524
6
Properties=species:S:1:pos:R:3:forces:R:3 energy=-26134.658299065344 free_energy=-26134.658299065344 dipole="0.21483313240441126 0.015049001340024902 0.43608017888572725" pbc="F F F"
C        0.01835735       0.07187192       0.09451126      -0.09792684      -0.68172706       1.35201313
Cl      -1.03153335       0.09518460      -1.81139904      -1.82918113       0.27909693      -3.02823866
H        0.50174800      -0.68884476      -0.48682595       0.45743304       0.24102532       0.46560746
H        0.10268893       1.11300542      -0.05455798       0.85582231       0.67645733      -0.24555783
H       -0.95653227      -0.13633835       0.47938995      -0.08009026      -0.51326843       0.31708460
Cl       1.03532523      -0.12771996       1.78113994       0.69394289      -0.00158409       1.13909129
6
Properties=species:S:1:pos:R:3:forces:R:3 energy=-26134.84067051403 free_energy=-26134.84067051403 dipole="0.05096603401053425 0.24568855383442206 0.34607174344396746" pbc="F F F"
C        0.08539830       0.04234673       0.06457308       0.03493630       0.91921825       0.62846580
Cl      -0.09388623      -1.16556876      -1.80610797       0.08512200      -1.36691433      -1.99314670
H       -0.33481331       0.72499997      -0.61801224      -0.42815484       1.12199214      -0.05212004
H       -0.63775748      -0.68548500       0.37160517       0.65212453      -0.31837734       0.55164520
H        1.16363429       0.02574857      -0.01903966      -0.31876766      -0.81970975       0.32488366
Cl       0.05951921       1.14936531       1.79177745      -0.02526033       0.46379103       0.54027208
6
Properties=species:S:1:pos:R:3:forces:R:3 energy=-26134.67864825648 free_energy=-26134.67864825648 dipole="0.08952626927622803 0.01708996534389179 0.03654834425777527" pbc="F F F"
C        0.05460105       0.05556606      -0.01628913       1.03784036       1.67534137      -0.28275738
Cl      -1.52698215       0.52906918      -1.30878864      -1.83917499       0.61358023      -1.71775024
H       -0.36222308      -0.89758450       0.07746227      -0.56489986      -0.77520805       0.08946063
H        0.79451188       0.28067322      -0.78027264      -0.37322601      -0.39198142       0.17354491
H       -0.24101580       0.93225599       0.54924473       0.08139152      -0.68904545       0.26184172
Cl       1.50304375      -0.55686245       1.31867419       1.65806898      -0.43268667       1.47566037
6
Properties=species:S:1:pos:R:3:forces:R:3 energy=-26134.962420950575 free_energy=-26134.962420950575 dipole="0.3431123193647119 -0.14943366932334426 0.36766595725202766" pbc="F F F"
C        0.15218128      -0.19205351      -0.01323296       0.54312436       1.62818165       1.22680235
Cl      -1.25781551       0.34108504      -1.75177953      -1.11188428       0.12025079      -1.81487723
H        0.26379109      -1.21864785      -0.29714686      -0.37428717      -0.10926219      -0.07788846
H        0.73579337       0.56616187      -0.51930161       0.35535286      -0.52482073       0.18710963
H       -0.73089404       0.28107934       0.39614992       0.29030926      -0.94855525       0.33790443
Cl       1.19861412      -0.26545366       1.76821400       0.29738497      -0.16579427       0.14094928
6
Properties=species:S:1:pos:R:3:forces:R:3 energy=-26134.507714170297 free_energy=-26134.507714170297 dipole="0.12017119194953467 0.0395662694068358 0.19168479603867122" pbc="F F F"
C       -0.00242343       0.14939750       0.08554703       1.41070764      -1.10002573      -0.52465226
Cl      -1.23756901       0.30954118      -1.60861637      -1.96098316       0.83717036      -2.46054354
H        0.17204988      -0.80142649      -0.41018777       0.08960635       0.50821082       0.66424035
H        0.62248202       0.98564751      -0.16835783      -0.31800780       0.11057932      -0.31785406
H       -0.84183806       0.28852222       0.70174170      -0.69069298       0.10110245       0.53340740
Cl       1.23973523      -0.37360150       1.57612873       1.46936994      -0.45703721       2.10540210
6
Properties=species:S:1:pos:R:3:forces:R:3 energy=-26134.747005415786 free_energy=-26134.747005415786 dipole="0.15621285061572665 0.0859721918317912 0.43506947898911963" pbc="F F F"
C        0.03238972      -0.05704134       0.10309902      -0.36927380      -0.24467049       1.62910191
Cl      -0.69753713      -0.61547655      -1.88562956      -0.99746347      -1.04730694      -2.74849494
H       -0.58040291      -0.85014108       0.47919585      -0.48812656       0.17070596       0.25603003
H        0.93325187      -0.46087006      -0.24080320       1.25852256       0.24478502      -0.48330032
H       -0.41757507       0.83420259      -0.24990030       0.15468205       0.51495808       0.19205629
Cl       0.68840344       0.64836079       1.85102526       0.44165922       0.36152837       1.15460702
6
Properties=species:S:1:pos:R:3:forces:R:3 energy=-26134.70631902545 free_energy=-26134.70631902545 dipole="0.04275194796506276 -0.0054025458294801616 0.03287337998382561" pbc="F F F"
C        0.01029499       0.00192340       0.00520002       0.69621622       0.19008465      -0.47984512
Cl      -1.29281057       0.32724397      -1.62301445      -1.47240872       0.21247425      -1.64827663
H        0.82511926       0.24933937      -0.70919618      -0.68286730      -0.25819131       1.13226785
H       -0.47860272       0.85010603       0.52743309       0.41516093      -1.27555359      -0.42913944
H       -0.24258523      -1.07120530       0.07858777      -0.31335293       1.30033388      -0.11553733
Cl       1.28636725      -0.32869864       1.62418633       1.35725180      -0.16914788       1.54053068
6
Properties=species:S:1:pos:R:3:forces:R:3 energy=-26134.385866816592 free_energy=-26134.385866816592 dipole="0.12307987587195524 -0.07398709902371599 0.08463886317344707" pbc="F F F"
C        0.05313584      -0.19730211       0.04184213       0.83560342       0.27270474      -0.60218620
Cl      -1.65728153      -0.33386048      -1.13404201      -2.30081091      -0.76384674      -1.57413831
H        0.03697789       0.81092584      -0.27977201      -0.24486649       0.19672171      -0.26175732
H       -0.46238687      -0.49328108       0.90964500      -0.61446116      -0.30088317       0.53081674
H        0.65195655      -0.91926963      -0.49617849      -0.50040882       0.05201006      -0.12153419
Cl       1.63283655       0.41781629       1.11606373       2.82494397       0.54329340       2.02879928
6
Properties=species:S:1:pos:R:3:forces:R:3 energy=-26134.834403736837 free_energy=-26134.834403736837 dipole="-0.06407164633254812 0.07999510877961208 -0.19835038626774287" pbc="F F F"
C       -0.07091592      -0.03002441      -0.05745870      -1.63556422      -0.63699209      -0.57824225
Cl       0.27247933      -1.01597690       1.83624266       0.30242938      -0.98488328       1.81746017
H        0.95244427       0.13187761      -0.12725559       1.31947991      -0.06474159       0.24753478
H       -0.52807809      -0.96512142      -0.40837826       0.44905460       0.81560265       0.06131115
H       -0.69501869       0.66278875       0.46341528      -0.01699886       0.07752820       0.13634276
Cl      -0.24075609       1.03099641      -1.81472128      -0.41840081       0.79348611      -1.68440661
6
Properties=species:S:1:pos:R:3:forces:R:3 energy=-26134.588038359456 free_energy=-26134.588038359456 dipole="0.1996383459179393 0.1164673737590018 -0.03036946688482858" pbc="F F F"
C        0.14080034       0.01550980       0.12092141       0.92448271      -1.27210212      -1.71870901
Cl      -1.38533384      -1.23129154       0.94518433      -1.39028156      -1.51465908       1.21924972
H        0.55204290       0.29014780       1.06342517      -0.11699302       0.18053543       0.45975626
H        0.64540353      -0.85420451      -0.39275545      -1.29957487       1.05446705       0.95192414
H       -0.70685474       0.51337314      -0.30693028       0.15105268      -0.12385509       0.15629288
Cl       1.32367885       1.22747775      -0.99649707       1.73131406       1.67561381      -1.06851400
6
Properties=species:S:1:pos:R:3:forces:R:3 energy=-26134.772430920995 free_energy=-26134.772430920995 dipole="-0.030568074500434136 -0.20792858056401092 0.06986689774505096" pbc="F F F"
C       -0.00263660      -0.04633524       0.00367048      -1.43792847       0.08402704       1.21274047
Cl       0.30926587       1.96256316      -0.70062456       0.32214245       2.03260202      -0.65923864
H       -1.11171382       0.12609270      -0.06562910       1.77639706      -0.08052877       0.07793637
H        0.54884202      -0.36176668      -0.84420373       0.13577878      -0.22254837      -0.41902491
H        0.54890850       0.18141847       0.92298034      -0.51361282       0.20617240      -0.78868769
Cl      -0.30797551      -1.94532135       0.69900710      -0.28277700      -2.01972433       0.57627439
6
Properties=species:S:1:pos:R:3:forces:R:3 energy=-26134.800869078263 free_energy=-26134.800869078263 dipole="-0.13269844162679442 -0.039059942597401316 -0.009104255248828923" pbc="F F F"
C       -0.07579001       0.05229416       0.02110832      -0.71977025      -0.12282490       1.11244330
Cl       1.68046674       1.18973052       0.42827330       1.62692234       1.39767401       0.46087834
H       -0.23839122       0.58347266      -0.86763276       0.12743031       0.49902609      -0.82497354
H        0.58224193      -0.76604295       0.09098909       0.28682030      -0.60112034      -0.14257105
H       -0.57520786       0.39250099       0.91797741       0.31193991       0.03335987      -0.18656463
Cl      -1.64820942      -1.21341784      -0.43944386      -1.63334262      -1.20611474      -0.41921242
6
Properties=species:S:1:pos:R:3:forces:R:3 energy=-26134.675458432364 free_energy=-26134.675458432364 dipole="0.15550259584301163 -0.07164477124431905 0.08045312753067141" pbc="F F F"
C        0.06729777      -0.05195794      -0.04814138      -0.66973166      -2.04800290       0.36843215
Cl      -1.54562275       0.50786778      -1.31352509      -1.97466731       0.67027629      -1.83598315
H       -0.55948672      -0.98566060       0.17145199       1.36774558       1.84368092      -0.12232997
H        0.72362325      -0.11495462      -0.91278598      -0.19080148       0.17030546       0.47648058
H       -0.14352260       0.88441505       0.42867372       0.15506265      -0.15556590       0.06814903
Cl       1.52223509      -0.48411611       1.33872644       1.31239222      -0.48069387       1.04525136
6
Properties=species:S:1:pos:R:3:forces:R:3 energy=-26134.859947621153 free_energy=-26134.859947621153 dipole="-0.26564606645191685 0.11595779145136792 0.3296879164032697" pbc="F F F"
C       -0.10859332       0.06018957       0.01619227      -0.46973799      -0.75991596       1.15985380
Cl       1.12701643      -0.50827268      -1.71315813       1.31967535      -0.57492280      -2.12179345
H        0.60310456       0.84188649       0.12514806       0.19233120       0.17833151      -0.01775098
H       -0.93064505       0.13799804      -0.65003406      -0.35369557       0.39193685      -0.35500576
H        0.10262231      -0.95259261       0.31586147       0.24564666       0.31686278       0.08875159
Cl      -1.08382795       0.48710351       1.71361543      -0.93421965       0.44770761       1.24594480
6
Properties=species:S:1:pos:R:3:forces:R:3 energy=-26135.219103005067 free_energy=-26135.219103005067 dipole="0.5486866296780379 -0.2360331965048412 0.5358966715621254" pbc="F F F"
C        0.13691441      -0.10092347       0.07714222      -0.08204418      -0.38827139       1.09207395
Cl      -1.53259722       0.60149994      -1.59832438      -0.94860089       0.35048437      -1.14032634
H        0.72901434       0.48302832      -0.58728354       0.56358958       0.26155488      -0.03813877
H       -0.70892660       0.45014268       0.50994106       1.00401202      -0.45096564       0.49962649
H       -0.16081579      -1.05790021      -0.33927641       0.35452673      -0.01841843       0.44850335
Cl       1.49021005      -0.56375892       1.58403374      -0.89148326       0.24561620      -0.86173867
6
Properties=species:S:1:pos:R:3:forces:R:3 energy=-26134.950554843836 free_energy=-26134.950554843836 dipole="0.42255555611073076 0.38836037823997915 -0.20675359813156102" pbc="F F F"
C        0.11258344       0.09542870       0.03746582       0.36889845       1.37675983       0.63924101
Cl      -1.46926132      -1.31910701       0.88999018      -1.69169670      -1.57057012       1.01005903
H        0.31518056       0.18934277       1.11461097       0.78226481      -0.06392449      -0.90462724
H        0.36788997      -0.81004259      -0.47277999      -0.04544481       0.09608060      -0.07968253
H       -0.80948855       0.63343655      -0.13246236       0.38235469      -0.10955977      -0.82232327
Cl       1.43471096       1.28641216      -0.91716777       0.20362356       0.27121395       0.15733300
6
Properties=species:S:1:pos:R:3:forces:R:3 energy=-26135.094332005243 free_energy=-26135.094332005243 dipole="-0.6282791684822452 -0.04813786069646048 -0.018362497890868662" pbc="F F F"
C       -0.12653331      -0.05878266       0.03460080      -1.41771407       2.37587422       0.72682663
Cl       2.20079567       0.12484804       0.17560864       1.86995773       0.14527487       0.25431754
H        0.06872793       0.81988122      -0.60696798      -0.29866498      -1.16116669       0.39595229
H        0.22274040      -1.02097584      -0.19238045      -0.25441741      -0.99683312      -0.72846815
H       -0.13446050       0.16610571       1.10460580       0.05458767      -0.08233468      -0.57916478
Cl      -2.16238869      -0.10393669      -0.19601173       0.04625107      -0.28081458      -0.06946353
6
Properties=species:S:1:pos:R:3:forces:R:3 energy=-26135.160493905143 free_energy=-26135.160493905143 dipole="0.6352105739493727 -0.21129613680033146 0.5845142885511008" pbc="F F F"
C        0.17871227      -0.21561513       0.05059517       1.10227962       2.04602636       1.82306661
Cl      -1.58231128       0.37196268      -1.55473174      -1.17354402       0.25139824      -1.22417289
H       -0.55245807       0.40439717       0.51982800       0.14322553       0.39421174       0.29888349
H       -0.24970047      -1.12888016      -0.15860258      -0.07588418      -2.31490994      -0.09738410
H        0.72699955       0.25524639      -0.73182382       0.41556665       0.07666392      -0.15536522
Cl       1.52389795      -0.28556652       1.54812707      -0.41164359      -0.45339032      -0.64502788
6
Properties=species:S:1:pos:R:3:forces:R:3 energy=-26134.9893538162 free_energy=-26134.9893538162 dipole="0.40243127012026353 0.5447420744866348 -0.3688724183200252" pbc="F F F"
C        0.05651212       0.04059906      -0.27762620      -1.04595545       1.81612150      -2.00803196
Cl      -1.18133768      -1.64073025       0.78692923      -1.34333613      -1.88303645       0.83522622
H       -0.14910910      -0.49596999      -1.22766475       0.26596794       0.88529291       0.64107947
H       -0.78781087       0.54116277       0.18605218       0.48636047      -0.07625036      -0.33525914
H        0.69362431      -0.46920796       0.33942721       1.54192955      -0.70885033       1.31672144
Cl       1.16910849       1.63903129      -0.67289901       0.09503362      -0.03327726      -0.44973604
6
Properties=species:S:1:pos:R:3:forces:R:3 energy=-26135.203689409744 free_energy=-26135.203689409744 dipole="0.32125965805289836 0.8058902542428087 -0.03629979607209995" pbc="F F F"
C        0.05411991       0.19594975       0.11137509       1.77157969       1.81209453       1.40135933
Cl      -0.85343011      -2.09909920       0.25485810      -0.61388845      -1.40437325       0.29718462
H       -0.96714150       0.31146703      -0.01453187      -1.60908947       0.68274876      -0.12501471
H        0.41972339       0.02757731       1.12159748      -0.26276873       0.28124933      -0.19835096
H        0.47168823      -0.47521971      -0.55535268       1.12146885      -0.43534985      -1.54238373
Cl       0.83724680       2.03658051      -0.30828131      -0.40730188      -0.93636951       0.16720545
6
Properties=species:S:1:pos:R:3:forces:R:3 energy=-26134.95189733373 free_energy=-26134.95189733373 dipole="-0.5075525822956037 -0.2957081607539894 -0.4616179292190602" pbc="F F F"
C       -0.05302234       0.04648687      -0.26824149       0.30361211      -4.81017869       0.58483477
Cl       1.58061219       0.98878719       1.14174704       1.69879962       1.08963746       1.05810168
H       -0.39356342       0.98241232      -0.12331715      -1.55475983       2.78541183       0.08837853
H        0.73113714      -0.09390318      -0.99872024      -0.18513394      -0.03735820       0.03563980
H        0.03456631      -0.55973169       0.66234172      -0.20049031       0.64411217      -1.39768360
Cl      -1.57322900      -1.01388624      -1.03779156      -0.06202764       0.32837543      -0.36927118
6
Properties=species:S:1:pos:R:3:forces:R:3 energy=-26135.204102697444 free_energy=-26135.204102697444 dipole="0.45872844860843376 0.5953733647523739 -0.33589994619928104" pbc="F F F"
C       -0.00034235       0.19702277      -0.10202489       1.65713117      -0.74123810      -1.08975179
Cl      -1.34051040      -1.54933029       0.87046449      -1.21993154      -1.28059563       0.72586570
H        0.64745725      -0.44883897       0.50218672      -0.23525371       0.85661377      -0.29305198
H       -0.32660036      -0.36321627      -1.00524722       0.16179965       1.05883550       0.77787180
H       -0.69735116       0.81339709       0.43522494       0.01275175       0.17281372      -0.18924635
Cl       1.35133179       1.48253782      -0.83396804      -0.37649731      -0.06642926       0.06831263
6
Properties=species:S:1:pos:R:3:forces:R:3 energy=-26135.20171828815 free_energy=-26135.20171828815 dipole="0.046522690139061205 -0.3065774929387805 -0.8901442933986071" pbc="F F F"
C       -0.16404034      -0.10448092      -0.20909119       0.34231613      -0.34420660      -1.31896152
Cl      -0.28612452       0.67288210       2.07219829      -0.34610535       0.66219100       2.14776196
H        0.47984753      -0.71270977       0.38330336       0.40474351      -0.10228101      -0.04501653
H       -1.19764418      -0.34970672      -0.05418933      -0.31218177      -0.21033710      -0.42845208
H        0.01028607       0.95309798      -0.18216258       0.29207855      -0.01051879      -0.36667642
Cl       0.36182153      -0.63437396      -2.00553349      -0.38085107       0.00515250       0.01134460
6
Properties=species:S:1:pos:R:3:forces:R:3 energy=-26135.13867726203 free_energy=-26135.13867726203 dipole="0.5966863650681742 -0.22571451236675533 0.5466447401432298" pbc="F F F"
C        0.10636863      -0.02477481       0.14263145      -0.18429807      -0.53397600       2.11624991
Cl      -1.60167392       0.60764090      -1.39047379      -1.76151499       0.64573592      -1.47190018
H        0.54315822       0.33965041      -0.73332263       1.23045176       0.35267191      -0.69245957
H       -0.46576132       0.72043018       0.70162558       0.71705533      -0.35158699       0.08631406
H       -0.46786002      -0.91902618      -0.01609336       0.32416521      -0.33320844       0.25745604
Cl       1.57673720      -0.60325762       1.34350698      -0.32585923       0.22036359      -0.29566026
6
Properties=species:S:1:pos:R:3:forces:R:3 energy=-26135.06660427669 free_energy=-26135.06660427669 dipole="0.4834699369970187 0.5078551928126419 -0.30892855161297456" pbc="F F F"
C        0.17091309       0.02261603      -0.10452587      -1.30336091       2.44636135      -0.79162417
Cl      -1.31107991      -1.52634209       0.83157635      -1.38421037      -1.70074378       0.95957472
H        0.73528412      -0.84943283      -0.24659323       0.92776242      -0.63153289      -0.14739346
H       -0.75708839       0.09651723      -0.69528863       1.10743083       0.13537625       0.06757383
H        0.01181364       0.42397116       0.87478192       0.34869895      -0.19788777       0.23032487
Cl       1.25345603       1.52803277      -0.79425345       0.30367909      -0.05157315      -0.31845580
6
Properties=species:S:1:pos:R:3:forces:R:3 energy=-26135.187759507295 free_energy=-26135.187759507295 dipole="0.5908816874220196 -0.27734920094195054 0.4837612559307378" pbc="F F F"
C        0.11508608      -0.16207902       0.06725236       2.02994579       0.84184653       0.20842570
Cl      -1.62260007       0.65125397      -1.36593756      -1.49406807       0.50089719      -1.17177528
H       -0.47134345       0.42917478       0.71169003      -0.66895448       0.04277817       0.66838616
H       -0.22030816      -1.10645247      -0.27343529      -0.22057621      -0.67137360       0.07878380
H        0.56764878       0.46985584      -0.69848667       0.41019173      -0.59183036       0.52689392
Cl       1.58713310      -0.59044121       1.35055097      -0.05653877      -0.12231792      -0.31071431
6
Properties=species:S:1:pos:R:3:forces:R:3 energy=-26134.812510335032 free_energy=-26134.812510335032 dipole="0.4227289526656706 0.41570249427127265 -0.3114858258835304" pbc="F F F"
C        0.05950910       0.07038730      -0.12140578       0.39857126      -0.50428637      -2.67989318
Cl      -1.43018393      -1.34092845       0.85908533      -1.80369460      -1.70220198       1.08385734
H        0.66654589      -0.86780373      -0.10885012      -0.65700301       1.49902396       0.49746851
H       -0.72067287       0.08123768      -0.91001077       1.10596407      -0.02971951       0.22611221
H       -0.32719389       0.65574970       0.65918637       0.52974366       0.26076894       1.27424171
Cl       1.42086397       1.32079984      -0.80772407       0.42641862       0.47641497      -0.40178659
6
Properties=species:S:1:pos:R:3:forces:R:3 energy=-26135.13915434046 free_energy=-26135.13915434046 dipole="-0.5852662858805394 -0.42859314581434294 -0.21396514472218905" pbc="F F F"
C       -0.24269229       0.04604832      -0.07955077       0.46572692      -1.85237554       0.10880136
Cl       1.59172804       1.44998776       0.60685517       1.15403678       1.25157128       0.54904927
H       -0.84027393       0.93998789      -0.24815155       0.18271865      -0.41461835       0.15735845
H        0.64857169      -0.11340007      -0.71796923      -1.39256716      -0.08702805       0.13933964
H       -0.03225873      -0.31493801       0.94190906      -0.53112143       0.63607144      -0.81154573
Cl      -1.50313200      -1.48013810      -0.57921371       0.12120623       0.46637921      -0.14300299
6
Properties=species:S:1:pos:R:3:forces:R:3 energy=-26135.062394379784 free_energy=-26135.062394379784 dipole="-0.3148814650252384 0.41861349175645785 0.6626750696190901" pbc="F F F"
C        0.11385888       0.11643821       0.25366753       2.04721927       2.34316395       3.26811175
Cl       1.08952828      -1.05928809      -1.62963877       1.02724300      -0.78695461      -1.28111683
H        0.29103437       0.93689213      -0.41111711       0.07123995       0.12488908      -0.06968307
H       -0.45646715      -0.63464380      -0.11808131      -1.70370233      -1.85847353      -0.45352899
H        0.99411967      -0.14471825       0.95010238      -1.68864843       0.32832170      -1.42478625
Cl      -1.15166863       1.01535778       1.53172419       0.24664854      -0.15094658      -0.03899662
6
Properties=species:S:1:pos:R:3:forces:R:3 energy=-26135.09562214636 free_energy=-26135.09562214636 dipole="0.47977964933858275 -0.37248189532663595 0.19633513551371448" pbc="F F F"
C        0.09900200      -0.06567834       0.04790457       1.69672356      -0.51142330      -1.72188650
Cl      -1.63563505       1.30572768      -0.65601774      -1.55821024       1.27708479      -0.57403037
H        0.58772899       0.45686761      -0.81899320      -0.56360988      -1.04372564       1.23564738
H       -0.00443304       0.50449319       0.91596281       0.02232815       0.60573636       1.11637894
H       -0.68587349      -0.77385992      -0.14375095       0.34187010      -0.23858554      -0.07670830
Cl       1.60500840      -1.28880633       0.64111714       0.06089830      -0.08908667       0.02059885
6
Properties=species:S:1:pos:R:3:forces:R:3 energy=-26135.168314326384 free_energy=-26135.168314326384 dipole="0.4585039467643837 -0.7268058779637793 0.41143655811799557" pbc="F F F"
C        0.21831759      -0.10055252       0.08356148       0.08346427      -0.91825431       0.62361289
Cl      -0.94359594       1.74507283      -0.92782049      -0.94910809       1.91793485      -0.98253437
H        1.04766801       0.59646760       0.13479477       0.18046641      -0.43544189      -0.50276001
H       -0.51986260       0.26091143       0.78667647      -0.11879836      -0.63670817      -0.11171817
H       -0.16619967      -0.43008214      -0.89347300       0.57817995       0.14846153       0.90303866
Cl       0.85934457      -1.72315404       0.89871248       0.22579582      -0.07599201       0.07036099
6
Properties=species:S:1:pos:R:3:forces:R:3 energy=-26135.16469294457 free_energy=-26135.16469294457 dipole="0.07644896105567557 -0.25859524103450404 -0.8000233347731475" pbc="F F F"
C       -0.07290356      -0.07023710      -0.17711204       1.27178523      -1.77931593      -0.70923080
Cl      -0.29138590       0.64065209       2.08441818      -0.40635054       0.62439632       2.16920389
H        0.83907900      -0.33632045       0.36880133      -0.45837524      -0.12656096      -0.80607138
H       -0.92042507      -0.70025210       0.04905693       0.01281492       0.22373134      -0.07646365
H       -0.20608607       0.97113750      -0.19948386      -0.35455806       0.91940930      -0.63187616
Cl       0.32425970      -0.61499408      -2.03061928      -0.06531631       0.13833993       0.05443810
6
Properties=species:S:1:pos:R:3:forces:R:3 energy=-26135.115669926927 free_energy=-26135.115669926927 dipole="-0.05267143351575233 0.34188697725384154 0.872353843480839" pbc="F F F"
C        0.05481870       0.09764676       0.18490093       2.41500096       0.33013152       2.00243544
Cl       0.20086979      -0.79034987      -2.04392634       0.22998503      -0.90775241      -2.17519464
H       -0.29426219       0.78409516      -0.50987296      -0.91756096       1.53829160      -0.40244011
H       -0.46395642      -0.79839424       0.21127329      -0.89996383      -1.32709144       0.22474966
H        1.14951164      -0.04043604       0.05994004      -0.95754958       0.19987025       0.61485509
Cl      -0.23056939       0.75882202       1.98806523       0.13008837       0.16655048      -0.26440544
6
Properties=species:S:1:pos:R:3:forces:R:3 energy=-26135.048614018222 free_energy=-26135.048614018222 dipole="-0.1978010553431147 0.5168639178163565 -0.3002420875928351" pbc="F F F"
C        0.00177552       0.16358203       0.00329930       0.77075293       1.68599062      -0.89767505
Cl       0.81249791      -1.68663528       1.14489451       0.93878134      -1.65660624       1.14104307
H        0.19540796      -0.52574565      -0.77076145      -0.39337637      -0.46580009      -0.58609353
H       -0.68312682      -0.03202413       0.77781345      -1.15122410       0.18445569       0.09282437
H        0.90073584       0.66172723       0.33033521      -0.10575776       0.22486656      -0.01364992
Cl      -0.82484338       1.62825522      -1.15560577      -0.05917604       0.02709345       0.26355107
6
Properties=species:S:1:pos:R:3:forces:R:3 energy=-26135.109183511344 free_energy=-26135.109183511344 dipole="-0.2579067079279282 0.42096579135121065 -0.38381971920866065" pbc="F F F"
C       -0.15197027       0.01731979      -0.10692392      -0.12973960       1.74425347       0.12699653
Cl       0.74859414      -1.59192832       1.30574250       0.53619472      -1.48064684       1.19812328
H       -1.06535377      -0.54997871      -0.15305534       0.02814201       0.06297208       0.23313360
H        0.10660642       0.62782975       0.76403804      -0.49309174      -0.53705073      -0.55612583
H        0.68390875      -0.36435519      -0.63752844       0.21758896       0.09431395      -0.62942174
Cl      -0.68928942       1.59420669      -1.26876023      -0.15909434       0.11615807      -0.37270584
6
Properties=species:S:1:pos:R:3:forces:R:3 energy=-26135.244840344538 free_energy=-26135.244840344538 dipole="0.7895120608226947 -0.1609506064617146 0.2502775304493055" pbc="F F F"
C        0.28459709       0.04280201      -0.13028330       0.56497755      -2.14150930       0.84582966
Cl      -2.01709111       0.51790656      -0.90561692      -1.21799284       0.38889891      -0.72977910
H        0.41537685       1.08999817      -0.25132835       0.32277768       0.47306213      -0.21706552
H       -0.49743298      -0.23717019       0.56412037       0.58626039       0.05921160       0.00991745
H        0.34269983      -0.64640937      -0.99524280       0.13544283       0.87804880       0.65433245
Cl       1.91325403      -0.53827793       0.96916398      -0.39146560       0.34228786      -0.56323494
6
Properties=species:S:1:pos:R:3:forces:R:3 energy=-26135.248307943188 free_energy=-26135.248307943188 dipole="-0.023882053797617066 -0.9623927690551171 0.061581272761660574" pbc="F F F"
C        0.11581589      -0.22555128       0.00253512       0.94306120      -1.88133081      -1.61120532
Cl       0.16828382       2.25335071      -0.19597493       0.12172676       1.58290443      -0.18813672
H       -0.26616375       0.21365572       0.85553723      -0.62436677       0.26933208       1.67565399
H       -0.43870918      -0.03151085      -0.87757083      -0.71377107      -0.00473892      -0.47744045
H        1.16421463      -0.01328286      -0.22567900      -0.20102304      -0.76095318       0.57706734
Cl      -0.22058512      -2.18173199       0.20215956       0.47437292       0.79478640       0.02406116
6
Properties=species:S:1:pos:R:3:forces:R:3 energy=-26135.186373264623 free_energy=-26135.186373264623 dipole="0.5101622509309547 0.5405352336691703 -0.3707107947664859" pbc="F F F"
C        0.13777824       0.02885999      -0.20763137      -0.29190330       1.54778795      -1.15246422
Cl      -1.33427382      -1.59661031       0.85021236      -1.00242417      -1.46289670       0.64439072
H       -0.01516243      -0.53784812      -1.12462555       0.06338102       0.41379388       0.16096199
H       -0.76500367       0.43026207       0.25566159       0.77358481       0.52807273      -0.57905830
H        0.78789273      -0.42462920       0.46865385       0.95972436      -0.49088141       0.88785102
Cl       1.28737275       1.60196533      -0.76848110      -0.50236273      -0.53587645       0.03831878
6
Properties=species:S:1:pos:R:3:forces:R:3 energy=-26134.618784937542 free_energy=-26134.618784937542 dipole="0.29819121474570043 0.5457801608914208 -0.28385088011758164" pbc="F F F"
C       -0.00117681       0.08586077      -0.20107982       1.12626515       0.75031092       0.03357195
Cl      -0.94197069      -1.74189556       0.65904792      -1.60194629      -3.03245416       1.08596854
H        0.74840058      -0.63071030      -0.43770436       0.64261723      -0.10215202      -0.20863320
H       -0.81739510      -0.01267776      -0.91153794      -0.01021725       0.90466052       0.53124965
H       -0.04892227       0.24556996       0.86815718      -0.60269588       0.33704876      -0.64473046
Cl       0.94572231       1.72411635      -0.57723964       0.44597704       1.14258598      -0.79742649
6
Properties=species:S:1:pos:R:3:forces:R:3 energy=-26135.08080900845 free_energy=-26135.08080900845 dipole="0.628264815079586 -0.23236377377464057 0.3936724987968954" pbc="F F F"
C        0.18640512      -0.11491105      -0.02179954       0.31147388       1.12774362       1.65342604
Cl      -1.70407599       0.58374006      -1.24563251      -1.76267166       0.63045619      -1.48283057
H       -0.73200355      -0.52252235       0.41947925       1.12526425      -0.00174775       0.16237100
H        0.52087353      -0.60490367      -0.91464246       0.14680298       0.02678257      -0.16710796
H        0.23130651       1.00312496       0.02205664       0.18568670      -1.57813737      -0.11716081
Cl       1.64034539      -0.54127202       1.26647103      -0.00655615      -0.20509726      -0.04869771
6
Properties=species:S:1:pos:R:3:forces:R:3 energy=-26135.075241327108 free_energy=-26135.075241327108 dipole="0.3599643597554305 -0.3526070640024057 0.3092325115318997" pbc="F F F"
C       -0.02196131      -0.15235748       0.10784893       1.71066456       0.10467186      -0.42608881
Cl      -1.48601988       1.17619020      -1.07865634      -1.45182880       1.08091682      -0.91672539
H        0.04419765       0.72692724       0.73887215      -0.29709502      -0.40883368      -0.21295144
H       -0.85061359      -0.83899166       0.19145310       0.25283476       0.02249324       0.22609921
H        0.46147077      -0.06288670      -0.88060014      -0.36204128      -0.29673792       1.07200763
Cl       1.50326902      -1.11959453       1.04070157       0.14746578      -0.50251033       0.25765880
6
Properties=species:S:1:pos:R:3:forces:R:3 energy=-26135.0203182322 free_energy=-26135.0203182322 dipole="0.40576836797469845 -0.36914926796127584 -0.7833698686598702" pbc="F F F"
C        0.12898922      -0.02356194      -0.17808729      -0.95458208      -2.12298287      -0.31776534
Cl      -0.93010716       0.87153531       1.77481646      -1.10735739       1.08440925       2.06933517
H        0.76102599       0.81318988       0.08107586       0.02002619      -0.33502511      -0.20015763
H       -0.06497142      -0.83325830       0.56917861       1.39848270       0.67382442      -0.87751514
H       -0.89951844       0.16943596      -0.46500619       0.49834243       0.65643832      -0.65975425
Cl       0.89218903      -0.86779934      -1.71974520       0.14508815       0.04333599      -0.01414281
6
Properties=species:S:1:pos:R:3:forces:R:3 energy=-26135.137401818138 free_energy=-26135.137401818138 dipole="-0.6320464884672229 0.4236272098135143 -0.27719023504954277" pbc="F F F"
C       -0.23910231      -0.00499640      -0.00555638      -1.23745818       0.72903391      -0.35170696
Cl       1.58168785      -1.29091628       0.79755771       1.55351844      -1.44313189       0.76304964
H       -0.80457464      -0.58499099       0.71756983      -0.08446888       0.56602157      -0.03117860
H        0.54879404       0.62159845       0.35440593      -0.29700682       0.38839831      -0.03947430
H       -0.04079596      -0.56517658      -0.88266266       0.31945198      -0.21109203      -0.55220229
Cl      -1.49224336       1.30763869      -0.80105813      -0.25403654      -0.02922987       0.21151251
6
Properties=species:S:1:pos:R:3:forces:R:3 energy=-26135.12878470817 free_energy=-26135.12878470817 dipole="-0.4663571180769343 -0.2771083337634866 0.6277181554415167" pbc="F F F"
C       -0.07465211      -0.06018717       0.14621168      -1.69226415       1.22926524       0.92371549
Cl       1.27079025       0.75599489      -1.67860999       1.18070931       0.74859150      -1.60492265
H       -0.79262086       0.22902758      -0.61715731      -0.09748470      -0.13992476       0.60505694
H        0.55927259      -0.81297363      -0.19285493       0.51180356      -1.74260921       0.21382029
H        0.49409303       0.77511561       0.54647469      -0.57905283      -0.29181343       0.46826435
Cl      -1.25291111      -0.74103835       1.63656478       0.67628880       0.19649066      -0.60593442
6
Properties=species:S:1:pos:R:3:forces:R:3 energy=-26134.99901694496 free_energy=-26134.99901694496 dipole="0.38211645175842396 -0.48228958182834997 -0.6051617313030072" pbc="F F F"
C        0.06928309      -0.15965318      -0.09320372      -0.42768089       0.02378440      -2.18483629
Cl      -1.01456933       1.14501370       1.57661741      -1.05123872       1.22131111       1.78161461
H        0.86985563       0.40036746       0.32371455       0.22487570       0.26010668       0.03119326
H       -0.40431527      -0.87894600       0.49599391       0.31471047      -1.66338126       0.93023187
H       -0.81054834       0.33866401      -0.51639275       1.24387743       0.21479866      -0.72311340
Cl       1.00090527      -1.08694238      -1.55366317      -0.30454398      -0.05661959       0.16490995
6
Properties=species:S:1:pos:R:3:forces:R:3 energy=-26135.23755865299 free_energy=-26135.23755865299 dipole="-0.6659308937916406 -0.5795143793733539 -0.26424273981969093" pbc="F F F"
C       -0.17652407      -0.07394014      -0.09830266       0.07257597      -1.98781581       1.09336569
Cl       1.57372664       1.44765064       0.60350351       1.46249265       1.39642106       0.54484350
H       -0.57639275       0.86554463      -0.36105989      -0.72696709       0.59603291      -0.44721663
H        0.71587605      -0.34903104      -0.66174509      -0.66072097      -0.19544119       0.13484218
H       -0.06122386      -0.19149656       1.00361629      -0.33981846      -0.18766699      -1.30928627
Cl      -1.51614286      -1.43184026      -0.56965146       0.19243789       0.37847002      -0.01654846
6
Properties=species:S:1:pos:R:3:forces:R:3 energy=-26135.02043016216 free_energy=-26135.02043016216 dipole="-0.1548030770175445 -0.09179611194885355 0.6324559663219345" pbc="F F F"
C       -0.15735079       0.09127340       0.13758153      -0.93091975       0.18742831       1.35018676
Cl       0.30116988       0.45595754      -2.11508629       0.11053254       0.42966676      -2.18978588
H        0.68664020       0.75695739       0.05315298      -0.24872599       0.01025886       0.84240169
H       -1.18621839       0.48966474       0.03879332       1.07877599      -0.24113830      -0.05802072
H        0.01809767      -0.88348278      -0.22036413      -0.01660655      -0.66165732      -0.30635743
Cl      -0.23416642      -0.49720802       2.07212306       0.00694377       0.27544168       0.36157557
6
Properties=species:S:1:pos:R:3:forces:R:3 energy=-26135.080496123766 free_energy=-26135.080496123766 dipole="-0.7440536074386337 -0.5685967036753146 -0.04460576209828722" pbc="F F F"
C       -0.22379797      -0.05779464       0.06822463      -1.47665403      -1.58227915      -2.26455670
Cl       1.67170144       1.39648968       0.14948643       1.71775728       1.49258345       0.12266209
H        0.04121915      -0.00238838       1.05099098       0.28889110      -0.41481808       2.46231905
H       -0.66154442       0.80877123      -0.31568337      -0.78213544       1.09499468      -0.38558394
H        0.47559817      -0.46060556      -0.60556319       0.74442320      -0.41417252      -0.30074780
Cl      -1.59176005      -1.38673995      -0.17629118      -0.49228210      -0.17630838       0.36590730
6
Properties=species:S:1:pos:R:3:forces:R:3 energy=-26135.027622380658 free_energy=-26135.027622380658 dipole="0.39027642308398874 0.6231163293456062 -0.2841682361575922" pbc="F F F"
C        0.01365418       0.16429715      -0.08194581      -0.09805245       1.03604380      -1.10127719
Cl      -1.15864535      -1.65118180       0.75406743      -1.58029663      -2.03229945       1.00567533
H       -0.25901774      -0.42758208      -0.97736179       0.52701457       0.95186422       0.64044369
H       -0.78457860       0.77760920       0.34718529       0.37522733      -0.51708922      -0.22360239
H        0.64668259      -0.33501791       0.61597273       0.42328344       0.19626181       0.03614592
Cl       1.16530512       1.59508864      -0.72589906       0.35282375       0.36521883      -0.35738535
6
Properties=species:S:1:pos:R:3:forces:R:3 energy=-26135.032952939153 free_energy=-26135.032952939153 dipole="0.5522671532827499 -0.06262448689361681 0.5856869859963554" pbc="F F F"
C        0.03231139       0.03538812       0.21466334       1.88484431       0.70304008       0.29294968
Cl      -1.55887434       0.25287124      -1.50713043      -1.88465919       0.38624398      -1.78013087
H       -0.43929448       0.93592506       0.57114227      -0.10860807      -0.29582348       0.54593692
H       -0.50484549      -0.86924161       0.12079929      -0.18679805      -0.75950257       0.86721589
H        0.54770871       0.24203727      -0.69713841       0.63508313      -0.01564408      -0.00802038
Cl       1.55919904      -0.27363957       1.43454699      -0.33986213      -0.01831392       0.08204875
6
Properties=species:S:1:pos:R:3:forces:R:3 energy=-26135.016118177056 free_energy=-26135.016118177056 dipole="0.7495608456874518 -0.2447071444255964 0.4229231929817574" pbc="F F F"
C        0.19246869       0.03083032       0.08246350       2.19554512       0.09465075       0.35319704
Cl      -1.76374368       0.68342576      -1.01797946      -2.36480599       0.99858879      -1.41148037
H       -0.63471616      -0.32537530       0.58539096      -1.01173770      -1.12740476       1.15450439
H        0.30829490      -0.32023288      -0.91163791       0.32774926      -0.26448695      -0.38102278
H        0.28810187       1.08335286       0.22085448       0.38771195       0.44729031      -0.03787858
Cl       1.69962195      -0.70631856       0.99303634       0.46553735      -0.14863815       0.32268031
6
Properties=species:S:1:pos:R:3:forces:R:3 energy=-26135.011348631084 free_energy=-26135.011348631084 dipole="-0.7143336431368614 0.21952215155848348 -0.30721677922660967" pbc="F F F"
C       -0.20752815       0.11533548       0.07648630      -0.63289339      -0.96566728      -1.68865648
Cl       1.83831535      -0.51007688       0.98643993       2.31134977      -0.59539013       1.36486857
H       -0.61326930      -0.08106147       1.05179857      -0.17483108      -0.07880314       0.03065997
H        0.36378953       1.02080793      -0.00141869      -0.17517052       0.11357760      -0.23942763
H        0.18149073      -0.76510159      -0.48123017      -0.67260119       1.17659464       0.63394420
Cl      -1.76606842       0.46603354      -1.02853809      -0.65585359       0.34968831      -0.10138863
6
Properties=species:S:1:pos:R:3:forces:R:3 energy=-26135.00206498763 free_energy=-26135.00206498763 dipole="0.5255005444559823 -0.21395590687562424 0.6570368383143919" pbc="F F F"
C        0.17833563      -0.24017842       0.06008930       1.66227710       0.99329682       0.92487779
Cl      -1.24611471       0.35302028      -1.73085884      -1.50523637       0.34395483      -2.10919388
H        0.42489519      -1.14416667      -0.48457982      -0.09056774       0.16140185       0.30339177
H        0.49259166       0.70783690      -0.35604771       0.61981600      -0.50621370       0.06069083
H       -0.77877108      -0.06847659       0.44356540      -1.08705948      -0.60593747       0.60439279
Cl       1.18174758      -0.25729029       1.72178990       0.40077050      -0.38650232       0.21584071
6
Properties=species:S:1:pos:R:3:forces:R:3 energy=-26134.921966957038 free_energy=-26134.921966957038 dipole="0.29803763481894174 0.49580177528902475 -0.03466469352588759" pbc="F F F"
C        0.07270513       0.10864665      -0.15150323       2.94493920       0.40580415      -0.99892557
Cl      -1.06616070      -1.87110906      -0.19850203      -1.00257016      -1.83484569      -0.31606021
H        0.35732514      -0.00518048      -1.18390111       0.07743086      -0.02323254      -0.13088165
H       -0.89147387       0.42888828      -0.04957100      -1.92707759       0.77523414       0.96464095
H        0.67536782      -0.47526440       0.50296678      -0.34513926      -0.02131514       0.56684927
Cl       1.03751161       1.83576390       0.27060512       0.25241695       0.69835508      -0.08562278
6
Properties=species:S:1:pos:R:3:forces:R:3 energy=-26135.23268736163 free_energy=-26135.23268736163 dipole="-0.08380005432261532 -0.8203335101341417 -0.08376532177639996" pbc="F F F"
C       -0.10880321      -0.16897849      -0.02579963       0.72895554      -1.65924073      -1.40167263
Cl       0.15239263       2.23934741       0.21059279       0.07384638       1.59992103       0.10257440
H       -0.94335161       0.09752102       0.55147276      -1.16709187      -0.17549751       0.27619178
H       -0.02406095       0.09830233      -1.06763283      -0.54686169      -0.05194867       0.08578700
H        0.79984709       0.00477782       0.46066089       1.09938041      -0.29352211       0.74593878
Cl      -0.11076382      -2.18779890      -0.20027340      -0.18822877       0.58028799       0.19118067
6
Properties=species:S:1:pos:R:3:forces:R:3 energy=-26134.953383422515 free_energy=-26134.953383422515 dipole="-0.6202650193455321 -0.49762522047131214 -0.008583735377429905" pbc="F F F"
C       -0.17086784      -0.06715666       0.11166892      -0.38852065      -1.12098473      -1.57371031
Cl       1.61463470       1.39440053       0.16607920       2.08865388       1.86022584       0.23446475
H       -0.41843583       0.64021108      -0.68683779       0.40898213      -0.79069460       0.28490856
H        0.71952023      -0.70813622       0.07632534      -0.86992575       0.44616062      -0.34735274
H       -0.34489683       0.35160331       1.05837561      -0.56368278       0.07399636       1.16275625
Cl      -1.55549629      -1.37971306      -0.21664906      -0.67550683      -0.46870350       0.23893349
6
Properties=species:S:1:pos:R:3:forces:R:3 energy=-26135.287571857185 free_energy=-26135.287571857185 dipole="-0.024282559981900678 -0.9418276250013519 0.06579826266884656" pbc="F F F"
C        0.11172488      -0.22158989       0.00025495      -1.89001914      -0.71930153       0.33783644
Cl       0.16830283       2.24917892      -0.19493583       0.18246802       1.68389776      -0.22603354
H       -0.23580613       0.28967003       0.92126570       0.31570485      -1.14993827      -0.65160250
H       -0.53240290      -0.00012825      -0.85398684       0.28746580      -0.26592656       0.44901655
H        1.14170184      -0.09148899      -0.21738724       0.75620321      -0.31354004       0.01436986
Cl      -0.21677697      -2.17973240       0.19911770       0.34817726       0.76480864       0.07641320
6
Properties=species:S:1:pos:R:3:forces:R:3 energy=-26135.29321114463 free_energy=-26135.29321114463 dipole="0.6512508125773779 -0.2632200339505301 0.6065849671694261" pbc="F F F"
C        0.13068860      -0.21894782       0.10578197      -0.43312004      -0.15061998       2.71422320
Cl      -1.62380856       0.46037875      -1.49473674      -1.17562668       0.20332921      -1.12716460
H        0.65644777      -0.10925921      -0.79553621       0.59349143       0.07035256      -0.78254713
H       -0.45255294       0.64046713       0.45735468       0.88204250      -0.43429811      -0.09499342
H       -0.42463786      -1.14806419       0.27924574       0.43851588       0.36071263      -0.36293638
Cl       1.58580596      -0.36865595       1.46057201      -0.30530310      -0.04947630      -0.34658167
6
Properties=species:S:1:pos:R:3:forces:R:3 energy=-26135.2554785823 free_energy=-26135.2554785823 dipole="0.7293731277539316 -0.3375327579373488 0.4017115653009222" pbc="F F F"
C        0.17897319      -0.18609147      -0.00643052       1.18167740      -0.59349366       0.93028090
Cl      -1.81449080       0.70909745      -1.12538830      -1.34321499       0.47539814      -0.97897673
H        0.03182925       0.84587065       0.22100384       0.46594721       0.23770130      -0.04926920
H       -0.65582387      -0.78346406       0.30293404       0.22153031      -0.42141232       0.55270367
H        0.57961956      -0.49886285      -0.95183601      -0.03506301       0.39882117      -0.31221036
Cl       1.75511374      -0.63363644       1.13973409      -0.49087692      -0.09701463      -0.14252828
6
Properties=species:S:1:pos:R:3:forces:R:3 energy=-26135.32351970468 free_energy=-26135.32351970468 dipole="-0.4695552513499891 0.24341554721125455 -0.7063529872133366" pbc="F F F"
C       -0.18886835       0.12891687      -0.08455160       1.00248226       0.47965974      -1.97189134
Cl       1.12691653      -0.54673249       1.88496543       0.68305535      -0.32679431       1.26805847
H        0.19664381       1.09586646       0.24609370      -0.52820812      -0.34318555      -0.27590943
H        0.59999693      -0.53628651      -0.42859876      -0.46376218       0.27077859       0.04602442
H       -0.94600120      -0.34011931       0.48254624      -0.74209882      -0.15873943       0.32324919
Cl      -1.05867808       0.49681325      -1.86484955       0.04853152       0.07828096       0.61046868
6
Properties=species:S:1:pos:R:3:forces:R:3 energy=-26135.14113910508 free_energy=-26135.14113910508 dipole="-0.3705678089674827 0.010716131678092437 -0.7716152298811095" pbc="F F F"
C       -0.35549572       0.00728587      -0.09802408      -1.17681273       0.94180163      -1.54321633
Cl       0.62826393      -0.00922173       2.16427752       0.29360490       0.03223982       1.59384638
H       -0.77426869       0.96804302       0.18177383       0.36019571       0.03840762      -0.34590115
H        0.67352050      -0.11288070      -0.04439781       1.24697212      -0.10320295      -0.18552860
H       -0.95508114      -0.77669817       0.29953054      -0.27833653      -0.81782670      -0.35473256
Cl      -0.47779468       0.00452208      -2.14348865      -0.44562346      -0.09141942       0.83553226
6
Properties=species:S:1:pos:R:3:forces:R:3 energy=-26134.774517579765 free_energy=-26134.774517579765 dipole="0.49993669404426994 0.009365071349776733 0.46508482683476543" pbc="F F F"
C        0.11905769       0.27765435       0.16716435       0.56053296       2.31546926       2.23735634
Cl      -1.58848426       0.42394612      -1.40643533      -1.77991863       0.59595312      -1.72518536
H        0.20937395       1.42265951       0.30702782       0.02501743      -2.09730963      -0.03812388
H       -0.81949599      -0.09262131       0.57839256       1.07807311      -0.42479130       0.04569513
H        0.55580505      -0.02786036      -0.73144510       0.22433651      -0.76064199      -0.76783074
Cl       1.54969017      -0.55504631       1.34541930      -0.10804138       0.37132053       0.24808851
6
Properties=species:S:1:pos:R:3:forces:R:3 energy=-26135.02760755146 free_energy=-26135.02760755146 dipole="-0.426157703483798 -0.4876492219695976 -0.34385711459231494" pbc="F F F"
C       -0.07051394      -0.03903352      -0.22513774      -0.92537831      -0.76468116      -0.08810925
Cl       1.32313790       1.53875974       0.83159630       1.31625919       1.60012852       0.67520527
H       -0.32142074       0.01808831       0.83566087      -0.61163234       0.24010352      -0.93038410
H       -0.36351024       0.72711789      -0.98810255       0.41904370      -0.85383229       1.27021046
H        0.90459127      -0.49888095      -0.28265374      -0.22007683      -0.11839229      -0.68931043
Cl      -1.30549262      -1.53253871      -0.74294452       0.02178459      -0.10332631      -0.23761195
6
Properties=species:S:1:pos:R:3:forces:R:3 energy=-26135.030093177968 free_energy=-26135.030093177968 dipole="0.48592193410741896 -0.2355229151541122 0.5063016010197043" pbc="F F F"
C       -0.02192279      -0.07450856       0.24793739       0.81800984      -2.09599890       1.17406516
Cl      -1.64107904       0.65586849      -1.31378677      -1.83312062       0.57721131      -1.28617413
H       -0.77174773      -0.40693496       0.96771789       0.22866991      -0.07885807      -0.47805540
H        0.12505496      -0.63344761      -0.65457985       0.12089393      -0.26689839       0.25497745
H       -0.00284901       0.95387802       0.11739014       0.92167159       1.57343573       0.29609306
Cl       1.66697615      -0.62816415       1.21753999      -0.25612465       0.29110833       0.03909386
6
Properties=species:S:1:pos:R:3:forces:R:3 energy=-26135.169967802824 free_energy=-26135.169967802824 dipole="0.7843969725208281 0.6748374992356151 -0.4480420259972968" pbc="F F F"
C        0.20291088       0.18569199      -0.04066076      -0.14677602       2.62326651       0.17662291
Cl      -1.53793541      -1.29528670       0.92065196      -1.57453582      -1.22802037       0.96194776
H       -0.68796473       0.26447925      -0.65056243       0.02149684       0.73324442       0.27503676
H        0.18199103       0.64853886       0.97384004      -0.29792307      -0.65405102      -1.11554731
H        0.39179879      -0.83591052      -0.05293955       1.52638087      -1.38979099      -0.01474575
Cl       1.47243261       1.23017892      -0.91456238       0.47135719      -0.08464856      -0.28331437
6
Properties=species:S:1:pos:R:3:forces:R:3 energy=-26135.456626194344 free_energy=-26135.456626194344 dipole="0.902552993092916 -0.301874562774197 0.7788068624749497" pbc="F F F"
C        0.11411094      -0.02756178       0.38086410       0.86309602       0.97803506       0.73171851
Cl      -1.79640613       0.60669640      -1.33314064      -1.04054838       0.35409859      -0.70126010
H       -0.62890533       0.15211459       1.16677147       0.61694770       0.03931525       0.04178657
H       -0.27132778      -0.79035857      -0.24834161       0.41155901      -0.81708639      -0.40349363
H        0.31513247       0.89137037      -0.20536240       0.21692955      -0.86582210       0.67918730
Cl       1.77438060      -0.60455555       1.18382243      -1.06798391       0.31145959      -0.34793865
6
Properties=species:S:1:pos:R:3:forces:R:3 energy=-26135.46659189325 free_energy=-26135.46659189325 dipole="-0.13784171602360443 0.47828163967395676 1.0697821945519586" pbc="F F F"
C       -0.07381004       0.14169052       0.24439971      -0.53201140       0.43252894       1.41112002
Cl       0.24528789      -0.91165703      -2.11841256       0.13203720      -0.44972708      -1.14871095
H        0.78758058       0.57952775      -0.15880219       1.09356903       0.74379162      -0.23878752
H       -0.93993954       0.40759156      -0.31733101      -0.65161869       0.43900062       0.14661441
H        0.03006381      -0.91570939       0.25169865       0.00962962      -0.66242835       0.79579346
Cl      -0.21680254       0.86161963       2.04198788      -0.05160576      -0.50316574      -0.96602942
6
Properties=species:S:1:pos:R:3:forces:R:3 energy=-26135.454342777386 free_energy=-26135.454342777386 dipole="0.012484431303266989 0.8746076261543012 -0.7339235765636455" pbc="F F F"
C        0.02702812       0.23732633      -0.14354518      -0.19703394       0.54091695      -0.17113032
Cl      -0.01067783      -1.72387706       1.51442322      -0.00826294      -1.04514328       0.95895352
H        0.22620070       0.68860489       0.83098956       0.06161889       0.30020406      -0.54637326
H        0.83250181      -0.46880961      -0.39152287      -0.67872251       0.56701763      -0.33190005
H       -0.99212989      -0.17231871      -0.11885171       0.71248280       0.18150505      -0.50436849
Cl      -0.00037267       1.64211731      -1.47490443       0.10991771      -0.54450041       0.59481861
6
Properties=species:S:1:pos:R:3:forces:R:3 energy=-26135.355505866897 free_energy=-26135.355505866897 dipole="-0.6454031816170419 -0.27033059500818013 0.9130386321117575" pbc="F F F"
C       -0.07545905       0.17374504       0.41286991      -0.87684764      -1.76058571       0.82185769
Cl       1.33332344       0.72215201      -1.64845234       0.96795797       0.61932088      -1.21882859
H        0.50771443      -0.61079253      -0.03441626       0.00760444      -0.00983987       0.26816596
H        0.47647162       0.83914389       1.04473020       0.09340405       0.27693166       0.25672039
H       -0.73450832       0.60281022      -0.29096572      -0.33739865       0.62714295      -0.49063249
Cl      -1.31485620      -0.80465307       1.48811148       0.14527983       0.24703009       0.36271704
6
Properties=species:S:1:pos:R:3:forces:R:3 energy=-26135.465070315568 free_energy=-26135.465070315568 dipole="0.04574790326387231 0.8470218425387454 -0.881746791356891" pbc="F F F"
C        0.01352017       0.17865298      -0.24636482      -1.14279259       0.06909456      -1.97792352
Cl      -0.09076109      -1.61334778       1.63166888      -0.05023688      -0.96539487       0.97576769
H       -0.57834332      -0.66626264      -0.60460710       0.08744926       0.55450160      -0.47167313
H       -0.46664328       0.57164896       0.59359935      -0.47364702       0.92861796       1.01800576
H        0.97868141      -0.16090305      -0.04861919       1.59779499      -0.02375223       0.10631742
Cl       0.08806560       1.56008290      -1.54650127      -0.01856776      -0.56306702       0.34950578
6
Properties=species:S:1:pos:R:3:forces:R:3 energy=-26135.368035973006 free_energy=-26135.368035973006 dipole="0.1824481724023919 0.7486572591959205 0.6418397890661675" pbc="F F F"
C       -0.04114986       0.10850367       0.27584620       0.83638325       1.11624191       0.43903546
Cl      -0.49017635      -1.80803970      -1.32944841      -0.28946025      -1.16067711      -0.66331372
H       -0.11748557       0.33881750      -0.79301812       0.10478748       0.39074536       0.93341357
H       -0.95770065      -0.20639566       0.76003317       0.05702424       0.24482581      -0.07995862
H        0.82036084      -0.49087647       0.54551816      -0.24116629      -0.05896754      -0.25814465
Cl       0.51136436       1.78146945       1.22141393      -0.46756844      -0.53216843      -0.37103205
6
Properties=species:S:1:pos:R:3:forces:R:3 energy=-26135.15662166012 free_energy=-26135.15662166012 dipole="-0.8818009335940127 -0.5136320500253055 -0.14543565400424402" pbc="F F F"
C       -0.31286549      -0.01105926       0.10308007      -2.65413195       0.12064074      -0.56713828
Cl       1.78165162       1.26164111       0.45248306       1.46597465       1.15608038       0.44972582
H       -0.81169898       0.50034718       0.90006745      -0.01268036      -0.33155705       0.99744834
H       -0.27819471       0.76232922      -0.63768953       0.43374183      -0.59046927      -0.94130707
H        0.51289960      -0.61063735       0.33675189       0.64313804      -0.64099326      -0.03344688
Cl      -1.65924154      -1.27643442      -0.50444406       0.12395779       0.28629846       0.09471807
6
Properties=species:S:1:pos:R:3:forces:R:3 energy=-26135.389070369285 free_energy=-26135.389070369285 dipole="0.19033188835271347 -0.0009567090041681586 -1.161704611575784" pbc="F F F"
C        0.04799613      -0.23869190      -0.31982102       0.98691096       0.76778949      -0.85339992
Cl      -0.38836836      -0.18145161       2.25533556      -0.29677407      -0.17061149       1.41580011
H       -0.07974063      -1.31282730      -0.40551505      -0.10857835       0.18551868       0.30835337
H       -0.80474702       0.34839736      -0.05730467      -0.59644081      -0.16716868      -0.17216489
H        0.84447375       0.09744600       0.37819281      -0.16396851      -0.43412744      -1.30399296
Cl       0.37324431       0.28697624      -2.14456901       0.17885078      -0.18140057       0.60540429
6
Properties=species:S:1:pos:R:3:forces:R:3 energy=-26135.190761449907 free_energy=-26135.190761449907 dipole="0.7455810980948374 -0.1646414227681839 0.6737392141605326" pbc="F F F"
C        0.17082059      -0.01050970       0.15122301      -0.24686064      -1.47699780       2.27393829
Cl      -1.64494231       0.36713972      -1.46357711      -1.59524638       0.30403605      -1.41081386
H       -0.69252529      -0.54994879       0.55584931       0.74323874      -0.07623275      -0.00597123
H        0.47725367      -0.38450858      -0.77459546       0.87401308      -0.63327504      -0.91538818
H       -0.11349073       0.99688583       0.09353828       0.62138856       1.50084026       0.48979760
Cl       1.59641386      -0.36535399       1.41590067      -0.39653336       0.38162927      -0.43156262
6
Properties=species:S:1:pos:R:3:forces:R:3 energy=-26135.375279973032 free_energy=-26135.375279973032 dipole="-0.07098889895517922 0.962752769369818 -0.7947489265593193" pbc="F F F"
C       -0.09962236       0.24039653      -0.19585409      -1.14807392      -0.51491313      -0.91510451
Cl       0.05247221      -1.74378172       1.41688864      -0.00203956      -1.36443631       1.11743827
H        0.83209626      -0.30726637      -0.24097526       0.23565133       0.76812107       0.37833146
H       -0.83961446      -0.50011855      -0.56119812       0.25561228       0.89295263      -0.14456160
H       -0.48223491       0.61467633       0.75214799       0.73305260       0.02826584      -0.17741398
Cl      -0.00479279       1.66781127      -1.34910785      -0.07420272       0.19000989      -0.25868965
6
Properties=species:S:1:pos:R:3:forces:R:3 energy=-26135.324403502364 free_energy=-26135.324403502364 dipole="-1.0784840645082294 0.008497609140524588 -0.1812657555593108" pbc="F F F"
C       -0.26085957      -0.13401584      -0.24088638      -0.65244421       2.37385201       1.17201679
Cl       2.32602322      -0.13717368       0.22272413       1.15346116      -0.16728388       0.06268498
H       -0.00122564      -0.40991536      -1.23987662      -0.32105796      -0.35967299      -0.48504387
H       -0.10470704      -0.85158883       0.53390561      -0.12666824      -0.51813014       0.06501729
H        0.28504974       0.81672555       0.05062623      -1.47395435      -1.10136948      -0.46101373
Cl      -2.24273312       0.19522730      -0.12247380       1.42066359      -0.22739552      -0.35366146
6
Properties=species:S:1:pos:R:3:forces:R:3 energy=-26135.36383200628 free_energy=-26135.36383200628 dipole="0.7757515604811526 -0.1422827082315537 0.7353444459495787" pbc="F F F"
C        0.12978100       0.10608516       0.27915531       0.55626275       0.89930289       2.35323965
Cl      -1.69397919       0.42707200      -1.44730843      -1.21248889       0.38147838      -0.95776326
H       -0.68343907       0.24913414       1.02379460       0.86245869       0.07355244      -0.58894544
H       -0.09772441      -0.69834128      -0.33952490       0.24259240      -1.21917607      -0.81161948
H        0.45296305       1.01527422      -0.22684902       0.00944555      -0.41651139       0.26782827
Cl       1.65933960      -0.47911106       1.33971987      -0.45827050       0.28135376      -0.26273973
6
Properties=species:S:1:pos:R:3:forces:R:3 energy=-26135.339377117547 free_energy=-26135.339377117547 dipole="0.8341687937990806 -0.21702887333388715 0.7569760794657295" pbc="F F F"
C        0.18424503       0.02819432       0.22733309       0.68111236       1.50621171       0.62068241
Cl      -1.64678447       0.47394119      -1.44868674      -1.25759429       0.30848738      -1.06652869
H        0.50837896       0.84200686      -0.48350234      -0.02595125      -1.07302324       1.29790728
H       -0.65228140       0.34568743       0.88298021       0.82873001      -0.38525262      -0.56815422
H        0.05504786      -0.88790190      -0.27103396      -0.56308346      -0.72621287      -0.57684222
Cl       1.58688597      -0.49201828       1.36801060       0.33678663       0.36978964       0.29293544
6
Properties=species:S:1:pos:R:3:forces:R:3 energy=-26135.45040228245 free_energy=-26135.45040228245 dipole="-0.7942888482505565 -0.9155046217259595 -0.3491205079825052" pbc="F F F"
C        0.01166059      -0.49325037      -0.09780644      -1.60661090      -1.01990493       0.15226816
Cl       1.63242120       1.49260927       0.63076366       1.01222101       0.89066728       0.37960079
H       -0.07305828      -0.08185193       0.90139555      -0.33527638      -0.40602075      -0.14310207
H        0.22640905       0.28698879      -0.77578170      -0.26400500       0.53306163      -0.80435225
H        0.69943084      -1.30494843      -0.20062059       0.48448088      -0.37401742       0.17750527
Cl      -1.66062033      -1.29421603      -0.59549257       0.70919039       0.37621420       0.23808009
6
Properties=species:S:1:pos:R:3:forces:R:3 energy=-26135.46509206465 free_energy=-26135.46509206465 dipole="0.2380553858304545 0.12670677603822378 -1.2171037683999693" pbc="F F F"
C        0.05382620       0.12740416      -0.30472725       1.35923835       0.69977712      -0.20746612
Cl      -0.42851739      -0.15448746       2.26149207      -0.21735872      -0.02341138       1.31300118
H       -0.07624134      -0.87554919       0.10797967       0.20686172       0.21970621      -0.76448126
H       -0.83402780       0.73083114      -0.07530210       0.48667955      -0.16341638      -0.56061981
H        1.01016053       0.60368415       0.04872889      -1.37127769      -0.59864216      -0.04200864
Cl       0.40743990       0.09827056      -2.16056058      -0.46414321      -0.13401341       0.26157466
6
Properties=species:S:1:pos:R:3:forces:R:3 energy=-26135.316702875578 free_energy=-26135.316702875578 dipole="-0.2739215714503324 -0.6965077118871249 0.6981167037714137" pbc="F F F"
C       -0.08053918      -0.02642235       0.32353272      -0.78580749      -0.98241230       0.36166120
Cl       0.58808598       1.66055871      -1.38727523       0.50939193       1.47289487      -1.05147924
H       -0.16892483      -0.28880070      -0.73047157      -0.16604100      -0.25911238       0.75780457
H        0.94916988       0.15703968       0.61122203      -0.31441907      -0.03977124       0.13244390
H       -0.82770635       0.71844726       0.65668970       0.68050625      -0.62246813      -0.18517549
Cl      -0.55944855      -1.66828849       1.26237562       0.07636939       0.43086918      -0.01525494
6
Properties=species:S:1:pos:R:3:forces:R:3 energy=-26135.357857733194 free_energy=-26135.357857733194 dipole="-0.18148333047367457 0.9919182517359946 -0.49723977149537796" pbc="F F F"
C       -0.10090812       0.20735534      -0.15195903      -0.76913547       1.59087837       0.25836070
Cl       0.28794554      -1.98473522       0.98064202       0.17014335      -1.69933714       0.83189060
H       -0.95148528      -0.31514497      -0.52364910      -0.10782310      -0.47530275      -0.65759818
H       -0.27665150       0.35656333       0.89729832       0.24983078       0.40009712       0.19767997
H        0.86892762      -0.18410537      -0.34302862       0.36297588       0.08392201      -0.52705544
Cl      -0.24354243       1.91853729      -0.93002667       0.09400856       0.09974240      -0.10327766
6
Properties=species:S:1:pos:R:3:forces:R:3 energy=-26135.35858635161 free_energy=-26135.35858635161 dipole="0.6291926897467276 0.03501346893359811 1.0417580680523868" pbc="F F F"
C        0.16925026       0.13359656       0.25273170       1.87504877       1.48650886       0.39524577
Cl      -1.17269475       0.04376444      -1.94108238      -0.91980672       0.09593803      -1.47458424
H        0.78638831       0.03767708      -0.64692051       0.30070568      -0.31112428       0.89768581
H       -0.21687782       1.13826730       0.27022882       0.06618466       0.36404464       0.28268004
H       -0.63795251      -0.50711821       0.21858039      -1.18117974      -1.66544432       0.43568900
Cl       1.11729630      -0.10804667       1.85994883      -0.14095265       0.03007707      -0.53671638
6
Properties=species:S:1:pos:R:3:forces:R:3 energy=-26135.339155464837 free_energy=-26135.339155464837 dipole="0.8732026215011406 0.6820547953366358 -0.6263476404422318" pbc="F F F"
C        0.13807551       0.11847515      -0.40166857       2.26646450      -2.01368251      -0.99365816
Cl      -1.60698149      -1.30072890       0.95683351      -1.08348279      -0.90443025       0.60982981
H       -0.40670895      -0.19705755      -1.29165510      -0.11070250       0.98823536      -0.10508755
H       -0.40955240       0.54264690       0.38002541      -0.63481637       0.84821731       0.66278698
H        0.56299123      -0.86962209      -0.07553621       0.06949295       1.46786463       0.02979852
Cl       1.56740099       1.27548828      -0.79267260      -0.50695578      -0.38620454      -0.20366960
6
Properties=species:S:1:pos:R:3:forces:R:3 energy=-26135.413125864285 free_energy=-26135.413125864285 dipole="-0.9788329492353222 0.46250502760706474 0.48846274302906817" pbc="F F F"
C       -0.18720357       0.14398053       0.20223418      -0.75073512       1.47798816       1.93640634
Cl       1.90522286      -0.83910572      -0.86715936       1.33409643      -0.53100859      -0.55287745
H       -0.16388463       0.34023104      -0.81460901      -0.13762857       0.35344193      -1.64813510
H       -0.14172812      -0.89296497       0.41684739      -0.06288980      -0.53387575       0.42897733
H        0.47060417       0.81324598       0.76365323       0.13538524      -0.71608075      -0.26956635
Cl      -1.84648687       0.78291542       0.78823543      -0.51822819      -0.05046499       0.10519522
6
Properties=species:S:1:pos:R:3:forces:R:3 energy=-26135.321398008804 free_energy=-26135.321398008804 dipole="0.5776370348462846 -0.011246289454027452 0.8722312214792527" pbc="F F F"
C        0.22353691       0.07066813       0.15031834      -0.20851350       0.25204760       0.74614173
Cl      -1.16476215       0.09303270      -1.91375204      -0.91178842       0.10576286      -1.53422021
H       -0.56263129      -0.69839042       0.23325403       0.73988936       0.74389514      -0.09166757
H        0.94883236      -0.10140640      -0.65937390      -0.16771994      -0.13352877       0.89977554
H       -0.15133892       1.12025839       0.11483977       0.35513854      -1.16301842       0.35513059
Cl       1.08234627      -0.12608828       1.87167297       0.19299395       0.19484159      -0.37516008
6
Properties=species:S:1:pos:R:3:forces:R:3 energy=-26135.243032192157 free_energy=-26135.243032192157 dipole="-0.9714177667872338 -0.5605884569812082 -0.4762459817299802" pbc="F F F"
C       -0.29000539      -0.34506203       0.09698284       0.00151028      -0.04354366      -2.30603239
Cl       1.76734669       0.85635644       1.04223683       1.70749243       0.74860962       0.99187243
H       -0.20228249       0.73272418       0.21294171      -0.43496488      -0.58007429      -0.21006636
H        0.62346196      -0.81042746      -0.29379602      -0.57893445       0.50447911      -0.25535420
H       -0.57203743      -0.89521894       0.92767469      -0.55180142      -0.55672394       1.97790713
Cl      -1.66479889      -0.71177969      -1.09917493      -0.14330196      -0.07274683      -0.19832661
6
Properties=species:S:1:pos:R:3:forces:R:3 energy=-26135.467691204216 free_energy=-26135.467691204216 dipole="0.7903860657789782 -0.2233020347396172 0.9037348918715079" pbc="F F F"
C        0.18619969      -0.10130370       0.22148172       2.07924351       2.43040177       0.36259351
Cl      -1.49661986       0.39284337      -1.71116970      -0.71675760       0.16786281      -0.83518275
H       -0.70171685       0.34321422       0.65041899       0.31282700       0.20711919       0.11047578
H       -0.03757818      -1.04131572      -0.17219146       0.04734563      -1.35003658      -0.61327857
H        0.80382232       0.59106761      -0.44694970      -1.44786853      -1.24901507       0.92385340
Cl       1.43169777      -0.35547668       1.63523895      -0.27479000      -0.20633212       0.05153863
6
Properties=species:S:1:pos:R:3:forces:R:3 energy=-26135.223464969917 free_energy=-26135.223464969917 dipole="-0.9487580885330447 -0.3868412623423098 0.1933780212929831" pbc="F F F"
C       -0.18512149      -0.12439864       0.22779448      -0.73190043      -0.97600203      -2.15348218
Cl       2.05127115       0.80139567      -0.25666763       1.99403078       0.74924920      -0.14292560
H        0.45078936      -0.99574739       0.46111368      -0.69337059       0.53479322      -0.35285368
H       -0.11685934       0.63642814       0.95138934      -0.34895211       0.65737906       0.94842409
H       -0.05087883       0.31642823      -0.79426632      -0.38572017      -0.97632151       1.31820930
Cl      -1.99659757      -0.75802793       0.16190820       0.16591252       0.01090206       0.38262807
6
Properties=species:S:1:pos:R:3:forces:R:3 energy=-26135.46458109904 free_energy=-26135.46458109904 dipole="0.8891695225178881 -0.3583653370406116 0.815552488759418" pbc="F F F"
C        0.19861433      -0.28263802       0.17684062       1.48901607      -2.08682941       0.39225646
Cl      -1.63675579       0.48738710      -1.52968426      -0.86142487       0.19058894      -0.83239869
H        0.69371100       0.15042110      -0.67722957      -0.35222938       0.53747898       0.18120711
H       -0.63338386       0.19583347       0.65058387       0.01091658       0.29881413      -0.10231934
H        0.05252247      -1.36789406      -0.03513694      -0.35570380       1.02299836       0.16927446
Cl       1.56625342      -0.36257531       1.47152472       0.06942540       0.03694900       0.19198001
6
Properties=species:S:1:pos:R:3:forces:R:3 energy=-26135.402128554706 free_energy=-26135.402128554706 dipole="0.8667442681804471 -0.22262805188962304 0.6069603443155117" pbc="F F F"
C        0.31294783      -0.01666707       0.02684734       0.75686693      -1.86829957       0.81662480
Cl      -1.74610611       0.48913200      -1.39476913      -1.03834771       0.31226195      -0.94448732
H       -0.36291082       0.67265983       0.45938833       0.10266475       0.82682098       0.56818323
H       -0.25009488      -0.94636385      -0.14391275       0.82043417       0.40602761       0.04141358
H        0.93734838       0.31438467      -0.78819422      -0.20033332       0.10402037      -0.05113612
Cl       1.63085212      -0.48464167       1.39911432      -0.44128481       0.21916865      -0.43059815
6
Properties=species:S:1:pos:R:3:forces:R:3 energy=-26135.435493254856 free_energy=-26135.435493254856 dipole="0.43165576897484814 -0.99832709100345 0.5974595522406556" pbc="F F F"
C        0.32573678      -0.34947078      -0.06710555      -1.92437492      -0.89198322       2.05191678
Cl      -0.66823853       1.81082575      -1.27832212      -0.30915529       0.85415057      -0.68122129
H        1.15870053      -0.22545799      -0.68741601       1.38767933      -0.29374183      -0.61045838
H        0.09326887       0.52809809       0.50142503       0.23049773       0.12336410       0.24200844
H       -0.58253116      -0.64846149      -0.57573606       0.27051401      -0.21836499      -0.07649806
Cl       0.53883886      -1.68258650       1.32271777       0.34483914       0.42657537      -0.92574748
6
Properties=species:S:1:pos:R:3:forces:R:3 energy=-26135.482265704857 free_energy=-26135.482265704857 dipole="-0.5955974358461746 1.070698761760465 -0.09261684410617245" pbc="F F F"
C       -0.21033560       0.24217763       0.03635457       1.92084249       2.24159504      -2.64409718
Cl       1.09214270      -2.03842713       0.21739873       0.46781600      -0.95952557       0.14301780
H        0.88330534       0.37508388      -0.19230772      -1.47793914       0.07776403       0.27868121
H       -0.64448737      -0.42546371      -0.66919306      -0.50283308      -0.23325589      -0.26233105
H       -0.36225848       0.03882408       1.02373255      -0.55124895      -0.63644734       2.43386678
Cl      -1.01736784       1.95670224      -0.23432917       0.14336268      -0.49013026       0.05086244
6
Properties=species:S:1:pos:R:3:forces:R:3 energy=-26135.520024205955 free_energy=-26135.520024205955 dipole="1.0850788762270336 -0.37966257024797684 0.5331265331127342" pbc="F F F"
C        0.41028729      -0.10321420      -0.07037151       1.60073920      -1.22228770       0.06253051
Cl      -1.91398502       0.68502737      -1.16306083      -0.85802201       0.30089383      -0.59609117
H        0.92664309      -0.17965436      -1.02868437      -0.07562294       0.12923504       0.19901654
H        0.05747783       0.88091622       0.12119340       0.13672273       0.53126444       0.61777503
H       -0.37298365      -0.83486780      -0.01937803      -0.06019866      -0.17869288       0.38038061
Cl       1.75759611      -0.64625782       1.21325875      -0.74361831       0.43958728      -0.66361152
6
Properties=species:S:1:pos:R:3:forces:R:3 energy=-26135.281492764345 free_energy=-26135.281492764345 dipole="0.7257078733526184 -0.15134892093071517 0.9973332708015049" pbc="F F F"
C       -0.05821340       0.18234935       0.59042070       1.45229109       0.57535840       1.86780549
Cl      -1.52596275       0.44180317      -1.58453155      -1.14218352       0.34682749      -1.29993730
H        0.19109525       1.04492570      -0.02976574       0.26287406      -0.53943930       0.31931957
H       -0.69903304       0.44352745       1.43566471       0.29439183       0.14714447       0.05708828
H       -0.51693056      -0.59522958       0.06018143       0.09664690      -1.06193904      -0.66158219
Cl       1.57482787      -0.52898420       1.34280089      -0.96402036       0.53204798      -0.28269385
6
Properties=species:S:1:pos:R:3:forces:R:3 energy=-26135.405958218453 free_energy=-26135.405958218453 dipole="-0.71434074416585 0.44963605169171633 -0.7771342423228627" pbc="F F F"
C       -0.20473353      -0.04595706      -0.26593929      -1.01269104       1.78350865       0.56502056
Cl       1.38584467      -0.99392259       1.47304387       1.01031577      -0.73163571       0.98793185
H       -0.36028247      -1.08707774      -0.43499245      -0.25393995      -0.41056755      -0.46830050
H       -0.47498978       0.24518092       0.76290761       0.04238226      -0.11136761      -0.95979345
H        0.74744523       0.33914138      -0.54934470       0.49788099      -0.15046931      -0.01222677
Cl      -1.31398052       1.02378910      -1.37664337      -0.28394802      -0.37946847      -0.11263169
6
Properties=species:S:1:pos:R:3:forces:R:3 energy=-26135.335933764785 free_energy=-26135.335933764785 dipole="-0.6615196836771019 0.4230336433783235 -0.7459143670227468" pbc="F F F"
C       -0.16467825      -0.02968695      -0.25637199      -0.21267197       0.80319409      -0.69944209
Cl       1.38819080      -0.99966525       1.46688287       1.20499262      -0.90540316       1.16381815
H       -0.27204204      -1.05766378      -0.55661858      -0.49281223      -0.15939460      -0.10487231
H       -0.39810132       0.13788776       0.79491460      -0.40631037       0.33371883      -0.74167341
H        0.84451865       0.28113778      -0.51249749      -0.42282279       0.39872400      -0.00284186
Cl      -1.33735356       1.02788295      -1.37222338       0.32962475      -0.47083917       0.38501152
6
Properties=species:S:1:pos:R:3:forces:R:3 energy=-26135.327932029835 free_energy=-26135.327932029835 dipole="0.47199456990360145 1.1533345542517395 -0.007152322664753348" pbc="F F F"
C        0.03462233       0.35034928       0.20353030       0.42584784      -0.07482110      -1.53408321
Cl      -0.88734220      -2.05404752       0.15534101      -0.70780014      -1.61330499       0.19234739
H        0.46975475      -0.05655499       1.08122512       0.47284059       0.15399736       0.94823795
H        0.37114607      -0.33055260      -0.60867156      -0.90283863       0.94433439       0.57731599
H       -1.05346527       0.47817176       0.34759705       0.86051447       0.19259743      -0.56819231
Cl       0.88165577       1.93275449      -0.24762067      -0.14856414       0.39719692       0.38437420
6
Properties=species:S:1:pos:R:3:forces:R:3 energy=-26135.476863378022 free_energy=-26135.476863378022 dipole="0.8848281050564732 -0.19687981391230738 0.7967061810786016" pbc="F F F"
C        0.20778163       0.01723086       0.24006237       0.62723802      -0.92936231       1.23970817
Cl      -1.78426774       0.44103678      -1.53309485      -0.54167034       0.18212661      -0.42282345
H       -0.26783852       0.74518082       0.86485402      -0.02785889       0.71500354      -0.32911865
H       -0.47503900      -0.81065589       0.10916773       0.45518514      -0.52294419       0.37894660
H        0.62114024       0.26385044      -0.71632977       0.40778034       0.53462806       0.04337725
Cl       1.71732969      -0.45251555       1.44443074      -0.92067428       0.02054829      -0.91008992
6
Properties=species:S:1:pos:R:3:forces:R:3 energy=-26135.28063001437 free_energy=-26135.28063001437 dipole="-0.5479597407488861 -0.3282712111128064 0.746149246031896" pbc="F F F"
C       -0.18573200       0.12912122       0.24970194      -0.91365831      -1.65497854       0.13422953
Cl       1.20088480       0.94544229      -1.62563854       0.99431698       0.90873718      -1.32109521
H        0.29301914       0.86411562       0.84970649       0.18793893       0.45674201       0.38624894
H       -0.92405639       0.49979859      -0.46699696       0.12877003      -0.30378878       0.62955278
H        0.48867470      -0.60213544      -0.17286479      -0.31548527       0.11137433       0.28241729
Cl      -1.13390798      -1.01085126       1.53506890      -0.08188236       0.48191380      -0.11135332
6
Properties=species:S:1:pos:R:3:forces:R:3 energy=-26135.300352756516 free_energy=-26135.300352756516 dipole="-0.8534373960066484 -0.5505739751252098 -0.24143449030104117" pbc="F F F"
C       -0.22869478      -0.04579980      -0.15957660      -0.79400394      -1.11944288      -0.10933293
Cl       1.78993512       1.25670598       0.45086676       1.37439939       1.01305969       0.38769599
H        0.01187456      -0.36705883       0.82524199       0.65556907      -0.13719490       0.23255939
H       -0.63032821       0.93827717      -0.13036411      -0.50847084       0.48873950      -0.27272256
H        0.51045641      -0.19466159      -0.94783496      -0.59597189      -0.38308780       0.30142015
Cl      -1.70937901      -1.25189548      -0.38960709      -0.13152180       0.13792640      -0.53962004
6
Properties=species:S:1:pos:R:3:forces:R:3 energy=-26135.487672158488 free_energy=-26135.487672158488 dipole="-0.9069434160682694 -0.7897787513198569 -0.30041721561560797" pbc="F F F"
C       -0.27809352      -0.16285204      -0.01491846      -0.45687527      -0.58683188       0.31190183
Cl       1.62411338       1.45336241       0.60798814       1.03506063       0.92156627       0.42738167
H       -0.79536564       0.56156405       0.63582699       0.17740090      -0.30784339      -0.83848544
H        0.19118147       0.21767967      -0.92461796      -0.29416574      -0.04536242       0.60857927
H        0.37325912      -0.76744684       0.61295358       0.08923958       0.23610043      -0.39714809
Cl      -1.52332484      -1.39852109      -0.61215091      -0.55066010      -0.21762901      -0.11222925
6
Properties=species:S:1:pos:R:3:forces:R:3 energy=-26135.334274410878 free_energy=-26135.334274410878 dipole="0.6952897623818861 -0.2605980148482618 0.699837730938014" pbc="F F F"
C        0.21610227      -0.18192783       0.07641253       1.69636549      -0.48800290       1.14103246
Cl      -1.48751127       0.45417858      -1.62272122      -1.08057693       0.24881736      -1.20639401
H       -0.55937248       0.34197968       0.51937736      -1.17546421       0.70897135       0.76367882
H        0.00028911      -1.18599930      -0.18544769      -0.19019539      -0.65957103      -0.20556872
H        0.72507439       0.37762321      -0.67040775       0.66102547       0.22620510      -0.12840271
Cl       1.40957267      -0.37927695       1.60639905       0.08884558      -0.03641988      -0.36434584
6
Properties=species:S:1:pos:R:3:forces:R:3 energy=-26135.207677590915 free_energy=-26135.207677590915 dipole="0.8492561985876305 0.1703552798463983 0.4938224683678467" pbc="F F F"
C        0.30498444       0.07712298      -0.05325144       0.74633487       0.34418264       0.85764387
Cl      -1.78135908      -0.33457635      -1.26665303      -1.75972363      -0.28769247      -1.37557131
H        0.07117422       1.06829313      -0.42279050       0.03984260       0.06360470       0.57975446
H       -0.48489230      -0.42304206       0.48588995       0.47809051       0.24735102       0.17743684
H        0.69513494      -0.49520143      -0.87909809       0.49083501      -0.36726857       0.29635968
Cl       1.67002378       0.30417933       1.30789788       0.00462065      -0.00017731      -0.53562353
6
Properties=species:S:1:pos:R:3:forces:R:3 energy=-26135.43640880153 free_energy=-26135.43640880153 dipole="-1.032809693592828 0.5537508381202859 0.2569340860358612" pbc="F F F"
C       -0.24637344       0.12425138       0.12765236      -0.78229020       1.77828765       0.32559813
Cl       1.98606672      -1.09745525      -0.43622882       1.11010046      -0.67211570      -0.19714667
H       -0.50731837      -0.85986690      -0.01494065      -0.93641001      -2.05708661      -0.34774931
H        0.31926435       0.19584943       1.02912373       0.12618137       0.51848148       0.51202500
H        0.29228742       0.46721805      -0.73537347      -0.34513811       0.73694446      -0.13328565
Cl      -1.90555546       1.06095286       0.38505047       0.82755649      -0.30451129      -0.15944150
6
Properties=species:S:1:pos:R:3:forces:R:3 energy=-26135.33158250236 free_energy=-26135.33158250236 dipole="-0.916178143133426 -0.3934647888040909 -0.48863627769926" pbc="F F F"
C       -0.27616581      -0.02591127      -0.07398524      -2.74359718       0.44820014      -1.20752981
Cl       1.82593259       0.87945001       1.09228068       0.90337546       0.49973518       0.66199818
H       -0.81079734       0.81125175       0.32217977       0.18013136       0.82453650      -0.29043227
H        0.54530904       0.12639356      -0.70818828       0.46811697       0.10294496      -0.93005355
H       -0.13938097      -0.65992781       0.71178738       0.66751992      -2.04417726       1.64165508
Cl      -1.72085118      -0.87856761      -1.07647668       0.52445348       0.16876047       0.12436237
6
Properties=species:S:1:pos:R:3:forces:R:3 energy=-26135.366262233256 free_energy=-26135.366262233256 dipole="0.06690296454678427 -1.1361952833504305 -0.4934929655941449" pbc="F F F"
C        0.25634626      -0.30699175      -0.11475452       1.55362962      -3.06167938       0.56698174
Cl       0.07097234       2.08399524       0.92025513       0.13891942       1.26277916       0.60082295
H        0.41010225      -0.61707010       0.93216828      -0.18115806       0.79909219      -0.68584958
H       -0.49652211       0.34284475      -0.33777704      -2.25114690       1.04677302      -0.22165408
H        1.13198319       0.03706367      -0.62579226       0.64730403      -0.09666629      -0.00868874
Cl      -0.18755634      -1.97323821      -0.88048168       0.09245189       0.04970130      -0.25161229
6
Properties=species:S:1:pos:R:3:forces:R:3 energy=-26135.17386490202 free_energy=-26135.17386490202 dipole="0.6607769977498601 -0.24195140965069953 0.7429938819193534" pbc="F F F"
C        0.10864615       0.06464377       0.25815169       1.45915491      -1.07373647       0.57234695
Cl      -1.47511903       0.65013391      -1.50658593      -1.56606946       0.75573236      -1.51825613
H       -0.57685322      -0.72229997       0.03712235       0.39630983      -0.63320701      -0.11284386
H        0.61779453       0.54098863      -0.55271548       0.55355798      -0.47829468      -0.18751748
H       -0.37451142       0.78959497       0.82118653      -0.69552926       1.24409922       1.31086358
Cl       1.44779293      -0.68933239       1.41043083      -0.14742401       0.18540658      -0.06459306
6
Properties=species:S:1:pos:R:3:forces:R:3 energy=-26135.453063653287 free_energy=-26135.453063653287 dipole="0.8226090568079198 -0.1902175379201055 0.7553099152756115" pbc="F F F"
C        0.23591593       0.07800712       0.17973768       1.04060096      -1.81276134       0.02843161
Cl      -1.62544233       0.45699156      -1.52789096      -0.93792407       0.29723011      -0.88775622
H        0.17355488      -0.83313569      -0.44011954       0.17605723       0.90679500       0.26809474
H        0.64178510       0.94799631      -0.33590238      -0.23338819      -0.25635700       0.41146973
H       -0.66506929       0.15759868       0.75263069      -0.08125792       0.52595804       0.19257785
Cl       1.54123756      -0.49116878       1.46765822       0.03591200       0.33913519      -0.01281770
6
Properties=species:S:1:pos:R:3:forces:R:3 energy=-26135.36830022479 free_energy=-26135.36830022479 dipole="0.3587168223648174 -0.931771149758632 0.4284032399887879" pbc="F F F"
C        0.23504705      -0.19191379       0.06916162      -0.64447875      -0.08783105       3.10383169
Cl      -0.62787055       2.03519582      -0.92031383      -0.25677656       1.10346616      -0.48251403
H        1.20087593       0.22984953      -0.11237609       0.51277923      -0.14836149      -0.12037159
H       -0.29764007       0.38069687       0.89720007       0.81668177      -1.16405672      -1.28480673
H       -0.37271055      -0.29788858      -0.78957648      -0.37655275      -0.69711710      -0.54706318
Cl       0.53314785      -1.97906275       0.89701596      -0.05165294       0.99390020      -0.66907616
6
Properties=species:S:1:pos:R:3:forces:R:3 energy=-26135.403019820744 free_energy=-26135.403019820744 dipole="0.375687840313673 1.1379540636067642 0.17032019275145185" pbc="F F F"
C        0.02538939       0.31555498      -0.02941083       0.82169333       0.82388340      -0.86805725
Cl      -0.72598913      -2.10045049      -0.38032262      -0.55318098      -1.58810343      -0.30037133
H       -0.06070480      -0.19188930       0.89160819      -0.45289465      -0.13092873       0.80539108
H        0.74344577      -0.21080686      -0.63615993       0.56097855       0.32034652       0.03529690
H       -0.85845803       0.38231060      -0.65415581      -0.20458180       0.54859354       0.58170931
Cl       0.72238323       1.99411530       0.40162447      -0.17201446       0.02620870      -0.25396871
6
Properties=species:S:1:pos:R:3:forces:R:3 energy=-26135.415286442567 free_energy=-26135.415286442567 dipole="-0.858318875324671 -0.4402463556096233 -0.6710568931984118" pbc="F F F"
C       -0.20641246      -0.03418482      -0.21925306      -0.47584028      -0.84543279      -2.52719084
Cl       1.71069119       0.92854628       1.26328277       0.93570886       0.51628790       0.61855414
H       -0.00250221       0.87600130      -0.73893353      -0.11790390       0.33707113      -0.56903536
H        0.61114234      -0.70858333      -0.28593787       0.33783502      -0.57878736      -0.15732983
H       -0.43368759       0.18048260       0.76046246      -1.31446628      -0.03763607       1.96365125
Cl      -1.64573018      -0.92685629      -1.18147818       0.63466658       0.60849719       0.67135065
6
Properties=species:S:1:pos:R:3:forces:R:3 energy=-26135.28577929208 free_energy=-26135.28577929208 dipole="-0.8795096005056889 0.16315452847086578 0.8452735500455478" pbc="F F F"
C       -0.07257102       0.22379796       0.38123339       0.35968708      -1.43622689       3.55576725
Cl       1.71869666      -0.19502039      -1.42278963       1.33142660      -0.09840507      -1.06976369
H        0.73865544       0.18663731       1.19116573      -1.31513453       0.48784001      -1.29976830
H       -0.07825309       1.05650977      -0.23991092      -0.12398093       1.33994104      -0.77221220
H       -0.03613566      -0.69788250      -0.12113350      -0.16901917      -0.67956939      -0.65151693
Cl      -1.71185915       0.10368995       1.27001794      -0.08297906       0.38642029       0.23749387
6
Properties=species:S:1:pos:R:3:forces:R:3 energy=-26135.261808910353 free_energy=-26135.261808910353 dipole="-0.986002868100681 0.33952181918204927 0.4916632888210259" pbc="F F F"
C       -0.28837274      -0.05571164       0.13209110       0.16073170       1.46760650       0.05239915
Cl       1.84302974      -0.76440525      -0.92928788       1.87922456      -0.88414349      -0.98932924
H        0.64755670       0.38773490       0.55515034      -1.49822506      -0.16966521      -0.43375303
H       -0.38763208       0.06527520      -0.95768222       0.01854097       0.14738277       0.88435650
H       -0.38303836      -1.07099855       0.42286568      -0.07437429      -0.80419390       0.20190686
Cl      -1.74182400       0.80085334       0.88395523      -0.48589789       0.24301333       0.28441976
6
Properties=species:S:1:pos:R:3:forces:R:3 energy=-26135.514658386594 free_energy=-26135.514658386594 dipole="0.9421504580254917 0.8036682666528661 -0.6345646152660958" pbc="F F F"
C        0.14490176       0.25357818      -0.31561006       2.14275822      -2.57152205      -0.14087351
Cl      -1.60642461      -1.33486603       0.96889596      -0.83521205      -0.66644176       0.46536861
H       -0.36651115      -0.19423840      -1.16594511      -0.06644943       0.60804175      -0.03768630
H       -0.44648700       0.81113711       0.34359657      -0.77707133       0.77787971       0.61990033
H        0.61512008      -0.62679260       0.21612975      -0.68295187       1.35108092      -0.46485162
Cl       1.56295623       1.24923121      -0.84472499       0.21892646       0.50096142      -0.44185751
6
Properties=species:S:1:pos:R:3:forces:R:3 energy=-26135.457441659008 free_energy=-26135.457441659008 dipole="0.31998776845623234 -0.29647242811540947 -1.3286785469444633" pbc="F F F"
C        0.51937100       0.02239035      -0.39314036      -0.56881842      -0.39304978      -0.09503524
Cl      -0.27537788       0.52911817       2.16477603      -0.25466118       0.29110661       1.52022378
H        1.48825067       0.47722214      -0.39943068       0.62318821       0.18737542      -0.25110111
H        0.50639039      -0.87327108       0.20679804       0.10906030       0.03107438       0.20852717
H       -0.21416427       0.70957550       0.02393791       0.04379772      -0.21039736      -0.58482669
Cl       0.04878026      -0.54561931      -2.02677736       0.04743338       0.09389073      -0.79778790
6
Properties=species:S:1:pos:R:3:forces:R:3 energy=-26135.614819819217 free_energy=-26135.614819819217 dipole="1.115332147967498 -0.8760481883409483 0.23269894033202704" pbc="F F F"
C        0.41251002      -0.11952688       0.31719562      -0.45677829      -0.81141628       0.06549163
Cl      -1.76592322       1.52727229      -0.23135227      -0.70852353       0.64299192      -0.08419249
H       -0.63336156      -0.53104400       0.30012606       1.43861154       0.41886306       0.22658187
H        0.51685689       0.59259522      -0.48654139       0.14095590      -0.21322433      -0.28676045
H        0.71546872       0.36157257       1.24337960      -0.38800765      -0.10962944       0.12897765
Cl       1.60912735      -1.49880604       0.09382740      -0.02625798       0.07241507      -0.05009821
6
Properties=species:S:1:pos:R:3:forces:R:3 energy=-26135.664191000826 free_energy=-26135.664191000826 dipole="1.1274391161081154 -0.42633716176368486 0.6846649852115393" pbc="F F F"
C        0.28948500      -0.11200354       0.20484506       0.52164473       0.10004097       0.26496069
Cl      -1.90403004       0.72213588      -1.14271630      -0.82068076       0.31406418      -0.48838435
H       -0.46499842      -0.86871664       0.21613873      -0.11398933      -0.56337842       0.28224180
H        0.53032373       0.11148533      -0.81314455       0.41755970       0.02914873      -0.36074851
H       -0.07463616       0.77950402       0.68345794       0.10145172       0.14808044       0.31488608
Cl       1.80621286      -0.68482068       1.07085346      -0.10598606      -0.02795589      -0.01295571
6
Properties=species:S:1:pos:R:3:forces:R:3 energy=-26135.546578198388 free_energy=-26135.546578198388 dipole="-0.1603645416426607 -0.20176861280950653 -1.3135295057111358" pbc="F F F"
C        0.21671583      -0.15853322      -0.40595300      -1.68918566      -0.59138633      -0.60414911
Cl       0.43800610       0.28496263       2.30173633       0.22268055       0.06334960       0.90526577
H        0.06543598      -1.16576084      -0.01326638       0.71012623       0.10778926      -0.33533602
H       -0.43751906       0.43383675       0.21135160      -0.14462025       0.50687856      -0.42621868
H        1.20695461       0.25704526      -0.42820931       0.30764591      -0.19550872      -0.25100428
Cl      -0.53517181      -0.21774626      -2.15764983       0.59335321       0.10887763       0.71144232
6
Properties=species:S:1:pos:R:3:forces:R:3 energy=-26135.39918537438 free_energy=-26135.39918537438 dipole="0.14451677323297302 -1.3683125092292518 -0.20054214143446877" pbc="F F F"
C       -0.42031038      -0.54035886      -0.05315739      -0.67424544      -1.35565196      -1.54893833
Cl      -0.50061871       2.18091786       0.31922341      -0.21926064       1.47355740       0.22564361
H       -0.36457733      -0.03959099       0.86965523       0.56387039      -0.23791466       1.48421029
H       -1.45236827      -0.88011733      -0.24150326       0.46973467      -0.00348530       0.02721433
H       -0.14123348       0.22984432      -0.74575014       0.20293528      -0.19873867      -0.55656291
Cl       0.69870594      -1.97822017      -0.29786905      -0.34303426       0.32223319       0.36843301
6
Properties=species:S:1:pos:R:3:forces:R:3 energy=-26135.4844514408 free_energy=-26135.4844514408 dipole="0.9839431362978643 -0.22434566586321536 0.8788120253481161" pbc="F F F"
C        0.23388221       0.03897767       0.29213699       1.13542410      -0.74107976      -0.18674658
Cl      -1.74428660       0.42970217      -1.49865364      -0.78567605       0.20756923      -0.65565033
H       -0.42130795       0.76075813       0.70980405       0.33008335       1.26316305       0.61393860
H       -0.44149044      -0.76332524       0.14582189       0.02695323      -1.41440919       0.11387049
H        0.67017441       0.25923182      -0.67342491       0.02417555       0.42828415       0.27111929
Cl       1.67052089      -0.45020650       1.39449240      -0.73096018       0.25647253      -0.15653146
6
Properties=species:S:1:pos:R:3:forces:R:3 energy=-26135.42614705327 free_energy=-26135.42614705327 dipole="0.7042027412361845 0.06506329690792981 1.1180636501303918" pbc="F F F"
C        0.23835976       0.22043618       0.27373228       1.68253124       1.77536916       1.21041552
Cl      -1.21264837       0.03457110      -1.99801720      -0.60938142       0.06673363      -1.02695092
H        0.73510181      -0.08465335      -0.61644556       1.19616373      -0.55186268      -0.05830897
H        0.15968147       1.31060940       0.25373016      -0.17101801      -0.29339722       0.10672184
H       -0.68218907      -0.24377391       0.22719053      -1.77935753      -0.95897139       0.75400650
Cl       1.12584346      -0.13718601       1.90912610      -0.31893802      -0.03787149      -0.98588397
6
Properties=species:S:1:pos:R:3:forces:R:3 energy=-26135.47659847937 free_energy=-26135.47659847937 dipole="0.8490666896449833 0.8656090063185994 -0.5546365627642518" pbc="F F F"
C        0.13374508       0.29287124      -0.20259362       1.32589244       0.75285900       0.77894422
Cl      -1.52794500      -1.48054238       0.94212943      -0.76937079      -0.70349482       0.45931292
H        0.33861898      -0.73727133      -0.27284261       0.76302822      -1.05657870      -1.10665942
H       -0.75532065       0.54545870      -0.71736241      -0.75608386       0.39854882      -0.16221553
H        0.14095848       0.37119504       0.87653780      -0.34359620       0.96535356      -0.02551666
Cl       1.49047072       1.37621251      -0.87025556      -0.21986981      -0.35668785       0.05613448
6
Properties=species:S:1:pos:R:3:forces:R:3 energy=-26135.570740711304 free_energy=-26135.570740711304 dipole="-1.3871482354825657 -0.17464551899224773 -0.1570578847072635" pbc="F F F"
C       -0.36626952      -0.20976144      -0.23535617      -0.51681381      -1.85597132       1.69815599
Cl       2.30503133       0.17469278       0.16332902       1.10251811       0.06786010       0.04810218
H        0.04010278       0.62729802      -0.73795227       0.06624204       0.60351952      -0.62216806
H       -0.20608721      -1.19889170      -0.70377705       0.18246205       0.84657378       0.00713398
H        0.03279275      -0.24992663       0.80041126      -0.42228481       0.14175527      -0.95586041
Cl      -2.17714641      -0.08026296      -0.06535126      -0.41212359       0.19626265      -0.17536367
6
Properties=species:S:1:pos:R:3:forces:R:3 energy=-26135.50037029314 free_energy=-26135.50037029314 dipole="0.6119922665977888 -1.1728005072790377 -0.20025038275448764" pbc="F F F"
C        0.36222257      -0.22926582      -0.33309329      -1.78801138      -2.67921032      -0.59039777
Cl      -0.95297817       2.13148325       0.15185812      -0.36968647       0.96998173       0.05091439
H       -0.70632666      -0.11249979      -0.14390819       0.45274544      -0.43078803       0.06886975
H        0.55964025      -0.05330194      -1.36280867       0.40804986       0.14696765      -0.72279569
H        0.89774065       0.34006770       0.33081457       1.38618387       1.11414985       1.43712784
Cl       0.80889586      -2.05875964      -0.00556495      -0.08928131       0.87889912      -0.24371851
6
Properties=species:S:1:pos:R:3:forces:R:3 energy=-26135.693866706268 free_energy=-26135.693866706268 dipole="0.623368862235677 -1.0489976128800484 0.7634157565351306" pbc="F F F"
C        0.36990435      -0.26145031       0.13099192       0.69686552      -0.51538361       0.28640544
Cl      -0.89681227       1.74880176      -1.31338614      -0.26440374       0.61785987      -0.46491001
H        1.17258791      -0.25425320      -0.60361283      -0.00865728       0.15124545       0.15025144
H        0.35529816       0.63261734       0.74190334      -0.10078993      -0.06738783      -0.14994918
H       -0.55951395      -0.44003920      -0.37733206      -0.29675235      -0.15221425       0.25412699
Cl       0.74394794      -1.65846471       1.27580109      -0.02626222      -0.03411963      -0.07592468
6
Properties=species:S:1:pos:R:3:forces:R:3 energy=-26135.499043232154 free_energy=-26135.499043232154 dipole="0.1518263049217951 -1.3995887778863427 -0.12802243282362114" pbc="F F F"
C       -0.33748416      -0.50085489      -0.19345737       1.64911352       0.06493948       1.49546561
Cl      -0.47634592       2.24187843       0.09829658      -0.21340231       1.13619898       0.01927065
H       -0.23745315       0.05148718       0.77869946      -0.17150881      -0.75759951      -1.32672909
H       -1.33748385      -0.67566155      -0.48159312      -1.17001196      -0.60997622      -0.02555769
H        0.15448755       0.01346697      -0.99084474       0.31998781       0.42951079      -0.09434106
Cl       0.63108035      -2.05481606      -0.01302423      -0.41417825      -0.26307352      -0.06810842
6
Properties=species:S:1:pos:R:3:forces:R:3 energy=-26135.489674048757 free_energy=-26135.489674048757 dipole="0.6817907782427414 -0.06270795401503905 1.0918525382011097" pbc="F F F"
C        0.19721817      -0.08511123       0.26850734      -0.42574148      -0.55869348       0.99297981
Cl      -1.20637663       0.05706968      -1.99701369      -0.47438900      -0.02376449      -0.87973764
H        1.02752644      -0.42170396      -0.33403878      -0.51926732      -0.28643860      -0.56334118
H       -0.12631271       0.92112951      -0.03387719       0.17674403      -0.58685754       0.61073778
H       -0.66485302      -0.81779960       0.42307043       1.53952707       1.22948945      -0.37087755
Cl       1.13283533      -0.01917991       1.90447102      -0.29687330       0.22626466       0.21023878
6
Properties=species:S:1:pos:R:3:forces:R:3 energy=-26135.54621144583 free_energy=-26135.54621144583 dipole="-0.982126742931085 -0.9260751577030463 -0.5361783827544095" pbc="F F F"
C       -0.51248459      -0.19003981       0.02301348      -0.85875722       1.00796634      -1.07922977
Cl       1.47233132       1.56378701       0.97343613       0.56087125       0.58577067       0.37103044
H       -0.08036073       0.63635290      -0.60378967      -1.02481064      -0.91358108       0.35380937
H        0.36516411      -0.57406108       0.49400402      -0.02620661      -0.51392504       0.75104792
H       -1.37897851       0.13664721       0.64389974       1.26445174      -0.05490114      -0.12786715
Cl      -1.26758151      -1.50505534      -0.99642067       0.08445146      -0.11132975      -0.26879081
6
Properties=species:S:1:pos:R:3:forces:R:3 energy=-26135.588375653024 free_energy=-26135.588375653024 dipole="1.0794675244787457 -0.3658797523867565 0.7331451907542476" pbc="F F F"
C        0.33262539      -0.12234608       0.12080515       1.08022950       1.18943257       0.97040017
Cl      -1.80977905       0.61252002      -1.32025829      -0.77151532       0.23949504      -0.62991703
H       -0.27989199      -0.97092410       0.08857729      -0.93433773      -0.83297860      -0.09507675
H        0.86348516       0.05951451      -0.77832700       0.12039422       0.03770458      -0.93442222
H       -0.16192917       0.80225959       0.43692785       0.25456292      -0.65642128       0.23705306
Cl       1.68509073      -0.56796368       1.28651651       0.25066641       0.02276770       0.45196277
6
Properties=species:S:1:pos:R:3:forces:R:3 energy=-26135.57763288947 free_energy=-26135.57763288947 dipole="0.32909371125118575 1.1473225619081564 0.7813609373400905" pbc="F F F"
C        0.09046801       0.19381472       0.46602041       1.13546126       1.07926917       1.23076281
Cl      -0.54280864      -2.03587307      -1.12028660      -0.15046340      -0.63676172      -0.26397846
H       -0.09766217       0.21192099      -0.57859609      -0.10395310      -0.17394001      -0.42906413
H       -0.68529943      -0.17503624       1.10017200      -1.04507746       0.33302488       0.02043061
H        0.94995480      -0.36449836       0.80816979       0.46955780      -0.03421753      -0.66348305
Cl       0.50740834       1.97952119       0.92458124      -0.30552510      -0.56737477       0.10533222
6
Properties=species:S:1:pos:R:3:forces:R:3 energy=-26135.62561670458 free_energy=-26135.62561670458 dipole="1.0476096302702202 -0.10153411935024352 1.043801530831042" pbc="F F F"
C        0.28506365       0.20803744       0.37505176       1.20945640       1.20935573      -1.10967591
Cl      -1.68130958       0.29574729      -1.62989978      -0.61249954       0.12203636      -0.56717762
H        0.32070835       1.33903722       0.43205401      -0.10139215      -1.47498326      -0.27237018
H       -0.67945860      -0.15651447       0.63691565      -0.47453171      -0.33291275       0.54727157
H        0.50918099      -0.18003067      -0.64826303      -0.07264211       0.60076773       1.08664320
Cl       1.58044826      -0.39473882       1.49086399       0.05160912      -0.12426381       0.31530894
6
Properties=species:S:1:pos:R:3:forces:R:3 energy=-26135.427878905415 free_energy=-26135.427878905415 dipole="0.7175687775388332 -0.773512084113578 0.7337294870630637" pbc="F F F"
C        0.09607695      -0.16184644       0.34374924       0.20479688      -1.69357035      -0.48332931
Cl      -1.33919677       1.42904235      -1.22252365      -0.75593886       0.77997608      -0.62346421
H        0.56621780       0.66171645      -0.12160580       1.25994654       0.47586262      -0.24666288
H       -0.46740301       0.24611138       1.16859171      -0.61581617      -0.52371291      -0.05506146
H       -0.36839864      -0.73885714      -0.49130678      -0.07853420       0.54869764       1.41546014
Cl       1.31430990      -1.37901089       1.09025577      -0.01445419       0.41274691      -0.00694229
6
Properties=species:S:1:pos:R:3:forces:R:3 energy=-26135.541085636174 free_energy=-26135.541085636174 dipole="0.691721108222007 -0.09944682270652852 1.2932910957759067" pbc="F F F"
C        0.17829021       0.05883352       0.38588902      -2.23892326      -0.07111875      -0.35712970
Cl      -1.14389688       0.18540207      -2.04494334      -0.47884760       0.07311815      -0.79934736
H       -0.80223533      -0.47409474       0.46898138       1.01808399       0.19309254       0.17021862
H        0.67747158      -0.40530636      -0.46547664       0.24021726       0.49224542       0.35981274
H       -0.17713471       1.11116009       0.19576549       1.24078815      -0.94540153       0.39381249
Cl       1.09207374      -0.21192570       1.90853212       0.21868145       0.25806417       0.23263322
6
Properties=species:S:1:pos:R:3:forces:R:3 energy=-26135.378948344907 free_energy=-26135.378948344907 dipole="0.19004151982126452 -1.2990204789134792 -0.33222983924294713" pbc="F F F"
C        0.50364755      -0.37374455      -0.22923638      -1.83798035       0.26243263       0.01667231
Cl      -0.05228745       2.26753461       0.52270542      -0.06890329       1.08998766       0.27449509
H       -0.04436996       0.45117532      -0.79297356       0.55299286      -1.81848288       0.08533291
H        1.56382470      -0.35802212      -0.42130634       0.26248520      -0.26671821       0.01399162
H        0.21024357      -0.11307348       0.78771871       0.55627939      -0.36648748      -0.09126490
Cl      -0.16753897      -2.14033784      -0.43290763       0.53512619       1.09926828      -0.29922703
6
Properties=species:S:1:pos:R:3:forces:R:3 energy=-26135.384421457893 free_energy=-26135.384421457893 dipole="0.3833492436260647 1.2338388765024697 0.10598285130407452" pbc="F F F"
C       -0.03984114       0.44347466      -0.24325126       1.03500832       1.37075441      -1.90985915
Cl      -0.78971890      -2.13978883      -0.39182874      -0.45060849      -1.24340235      -0.25702097
H       -0.59777510      -0.09942292       0.48203120      -0.00709481       0.12644033       0.82861625
H        0.75959554      -0.22558230      -0.70318608      -1.16919237       1.31195722       0.76147425
H       -0.73405272       0.91358652      -1.00639448       0.95896777      -0.82080520       0.80037409
Cl       0.81948877       1.97279689       0.50915062      -0.36708044      -0.74494441      -0.22358447
6
Properties=species:S:1:pos:R:3:forces:R:3 energy=-26135.4530546713 free_energy=-26135.4530546713 dipole="-1.043723284042802 -0.9841652912409856 -0.18073839342657916" pbc="F F F"
C       -0.21104577      -0.38822382      -0.29797928      -0.67574287       1.04894750      -2.14883736
Cl       1.77296630       1.53368675       0.16775514       0.78769730       0.65339562       0.08052983
H       -0.35841121       0.74705593      -0.26594680      -0.37893773      -1.96048316      -0.38587545
H        0.23885279      -0.76839713      -1.25221474      -0.62836493       0.74447782       0.65170177
H        0.51869598      -0.54653631       0.42566956       0.75979739      -0.70934559       1.67441384
Cl      -1.71281002      -1.38600334      -0.03573085       0.13555085       0.22300781       0.12806736
6
Properties=species:S:1:pos:R:3:forces:R:3 energy=-26135.477487059397 free_energy=-26135.477487059397 dipole="0.42484016229835375 -0.3065479463292287 -1.3318105727544884" pbc="F F F"
C        0.12652209      -0.27334338      -0.36044460       0.45549833      -0.01252638       1.33962055
Cl      -0.69078443       0.40876726       2.19218424      -0.34381340       0.16349180       1.11572667
H        1.01521033      -0.43738840       0.28625198      -0.63996073      -0.16100746      -0.67334127
H       -0.67019978      -0.97347458      -0.11433997       0.36966168      -0.57096809      -0.56946174
H       -0.32024825       0.63438421       0.04636666       0.38112137       0.53538351      -1.05972464
Cl       0.64721271      -0.29407564      -2.07626674      -0.22250725       0.04562663      -0.15281958
6
Properties=species:S:1:pos:R:3:forces:R:3 energy=-26135.570752702766 free_energy=-26135.570752702766 dipole="0.9557006569934292 -0.2775406620193275 0.8243535312875431" pbc="F F F"
C        0.24968349      -0.12754399       0.18638279       1.58909427       1.81761019       1.29418786
Cl      -1.71281956       0.48688763      -1.50763354      -0.68992524       0.19702660      -0.61615127
H        0.62845893       0.65891400      -0.44346990       0.21846799       0.10463624      -0.07765589
H       -0.53913921       0.26839400       0.78169524      -0.60564566      -0.21275713       0.22578703
H        0.06433336      -0.97473260      -0.38177642      -0.33768733      -1.69815182      -0.49843577
Cl       1.62385395      -0.44232529       1.44572257      -0.17430403      -0.20836408      -0.32773197
6
Properties=species:S:1:pos:R:3:forces:R:3 energy=-26135.410014088822 free_energy=-26135.410014088822 dipole="0.6055971123821758 1.1618168553539165 -0.2957233412606289" pbc="F F F"
C        0.19052714       0.36280117       0.12057734       1.64545177       0.09988132      -0.71217067
Cl      -0.97858749      -1.95013811       0.62253540      -0.52853937      -1.10146337       0.39018007
H       -0.54744656       0.08729749      -0.58532115      -1.18674134      -0.11995551       0.33589924
H        0.02198312       0.61013810       1.15028796      -0.81846679       0.03682718       0.11876975
H        0.95022712      -0.40032220       0.06346146       0.22618254      -0.06154882       0.08457703
Cl       0.90195608       1.81876730      -0.68125783       0.66211318       1.14625920      -0.21725541
6
Properties=species:S:1:pos:R:3:forces:R:3 energy=-26135.24524083538 free_energy=-26135.24524083538 dipole="1.0113120398087339 -0.2565597085055264 0.7690836445182405" pbc="F F F"
C        0.50112239      -0.14281287      -0.04663950       1.28084909       0.11522914      -0.50306518
Cl      -1.60890431       0.37792278      -1.46414163      -1.58054789       0.39897523      -1.40339963
H       -0.46513213      -0.51079030       0.11452311      -1.04948762      -0.18447543       0.84250829
H        0.89116441      -0.82047821      -0.82341233       0.46094799       0.50424019       0.38854452
H        0.44372176       0.90897921      -0.38815169       0.40081420      -0.84077519       0.59712132
Cl       1.41438546      -0.31752806       1.51113752       0.48742423       0.00680606       0.07829070
6
Properties=species:S:1:pos:R:3:forces:R:3 energy=-26135.56778055197 free_energy=-26135.56778055197 dipole="-1.3066005572137969 -0.3659371273674575 -0.3070553441933374" pbc="F F F"
C       -0.34038531      -0.10648953      -0.12409562      -1.14018363      -0.69304434      -0.33374565
Cl       2.18441815       0.60548440       0.47189088       1.00893384       0.27669706       0.17658976
H       -0.19900387       0.34358054       0.81095046      -0.29213833       0.46287106       1.26964715
H       -0.13065432       0.56835622      -0.88754925       0.58008959       1.06213238      -1.17086817
H        0.23709700      -0.98389780      -0.20543776       0.54912284      -0.90216862      -0.10013414
Cl      -2.06645851      -0.56735795      -0.42182585      -0.70582431      -0.20648754       0.15851105
6
Properties=species:S:1:pos:R:3:forces:R:3 energy=-26135.393675359763 free_energy=-26135.393675359763 dipole="-0.9944775278839381 -0.8189119586387839 -0.2676567541108585" pbc="F F F"
C       -0.10634130      -0.40529417      -0.23700135       0.06024972      -0.97912489       1.80160108
Cl       1.83333637       1.29264439       0.36719852       1.08217465       0.73940516       0.19089243
H        0.16145022      -0.44830483       0.88383623      -0.45070315       0.38617201      -2.23953495
H       -0.26692922       0.58753208      -0.63571064       0.32419305      -0.17598435       0.21981391
H        0.61605784      -1.02830466      -0.81727983      -0.88954410       0.53887109       0.35076058
Cl      -1.81182433      -1.13004416      -0.27071528      -0.12637017      -0.50933901      -0.32353306
6
Properties=species:S:1:pos:R:3:forces:R:3 energy=-26135.35157699444 free_energy=-26135.35157699444 dipole="-0.9710706387081797 0.3624659915714728 -0.8937538048017366" pbc="F F F"
C       -0.39914105       0.72210918      -0.14713647      -1.61475292      -0.56291086       0.34340267
Cl       1.55499567      -0.22636757       1.55338777       1.14382412      -0.37645603       1.00449618
H        0.62637643       0.77845900      -0.42435508       0.50534395      -0.33354714      -0.57032505
H       -0.46414683       0.09661235       0.78399769      -0.21233175       0.64685397      -1.38140420
H       -0.77446044       1.73264185       0.00734306      -0.38052630      -0.02345273      -0.12299432
Cl      -1.40235217      -0.09244282      -1.51397072       0.55844290       0.64951278       0.72682472
6
Properties=species:S:1:pos:R:3:forces:R:3 energy=-26135.42194144885 free_energy=-26135.42194144885 dipole="1.2301027271719027 -0.3947032592723782 -0.29679062184294436" pbc="F F F"
C        0.35553884      -0.13340334       0.06745144       0.11306028      -0.71320858      -1.15822626
Cl      -2.08804757       0.63665727       0.63230170      -1.24630363       0.34839688       0.44197960
H        0.19068697       0.93759653      -0.08650962      -0.13054242      -0.81217034      -0.36741226
H        0.46414506      -0.35325516       1.08613748       0.17698786      -0.02068765       1.52245739
H       -0.34048455      -0.90045878      -0.32343347       0.27487420       1.26784845      -0.14986344
Cl       1.95864731      -0.58246957      -0.67438247       0.81192370      -0.07017877      -0.28893502
6
Properties=species:S:1:pos:R:3:forces:R:3 energy=-26135.28416917252 free_energy=-26135.28416917252 dipole="0.23508148822531288 1.2075914206823661 0.4396735212791879" pbc="F F F"
C       -0.13548939       0.46008474      -0.04727266       0.90727279      -0.05611684       0.15548948
Cl      -0.51331290      -1.99096964      -0.84986395      -0.45719783      -1.70773542      -0.69077373
H        0.56174039      -0.05214026      -0.70400966       0.51219164       0.76284866       0.17161540
H       -0.94852204       0.80432566      -0.66309843      -0.54556537       0.06951202       0.33290576
H       -0.30855642      -0.25354562       0.73041023      -0.86457263      -0.12325491       0.02388756
Cl       0.57899030       1.82090740       0.88398478       0.44787140       1.05474650       0.00687554
6
Properties=species:S:1:pos:R:3:forces:R:3 energy=-26135.56941858176 free_energy=-26135.56941858176 dipole="-1.0301740545275142 -0.9354445487263928 0.02368026423944439" pbc="F F F"
C       -0.22610784      -0.33601633       0.20439227      -0.45505550      -2.01797179       1.93910835
Cl       1.81130637       1.54832717       0.11362182       0.53673609       0.42789499       0.09080520
H        0.04395856       0.07671059      -0.70429339       0.49716268       0.73002109      -1.47610925
H        0.55742964      -0.97027279       0.67252280      -0.61795090       0.10427042      -0.83655604
H       -0.46478561       0.38153927       0.97314924      -0.65749743       0.29385156      -0.22431592
Cl      -1.73858181      -1.41992065      -0.20964059       0.69660506       0.46193372       0.50706766
6
Properties=species:S:1:pos:R:3:forces:R:3 energy=-26135.353862885153 free_energy=-26135.353862885153 dipole="1.0700634855775375 -0.3805668848873499 0.6817997393296251" pbc="F F F"
C        0.53258678      -0.11161564      -0.07821868      -0.02201299       1.77034781       1.60707475
Cl      -1.72999511       0.67978437      -1.33684784      -1.19884579       0.43221716      -0.91926708
H       -0.10850873      -0.83951359      -0.48059659      -0.04867168      -1.66439809      -0.28417633
H        1.18253431       0.35043978      -0.79735541       0.48616535      -0.13346809      -0.27298573
H       -0.22931774       0.64609860       0.20297708       1.10285733      -0.40886297       0.53393366
Cl       1.52552782      -0.64643220       1.39391580      -0.31949223       0.00416418      -0.66457928
6
Properties=species:S:1:pos:R:3:forces:R:3 energy=-26135.47894517964 free_energy=-26135.47894517964 dipole="-0.5061643896024228 -0.6443386453477403 1.0277433758502188" pbc="F F F"
C        0.04682604      -0.07372958       0.46156247       0.59594409      -2.02511929       0.95032698
Cl       1.00494756       1.18596068      -1.66633057       0.61864444       0.72810873      -0.91203655
H       -0.14006500       0.89844544       0.80657170      -0.14723931       1.22923370       0.20086800
H       -0.28606000      -0.28360963      -0.51073156      -0.38769426       0.06828906      -0.91937645
H        1.09927238      -0.39535237       0.56785339      -0.75413837       0.20232615       0.16399109
Cl      -1.03995349      -1.16722086       1.48538755       0.07448340      -0.20283835       0.51622693
6
Properties=species:S:1:pos:R:3:forces:R:3 energy=-26135.258757971005 free_energy=-26135.258757971005 dipole="0.9580053391060666 -0.30148816445434706 0.8134877467067716" pbc="F F F"
C        0.12405669      -0.03611359       0.41520166      -0.15463447       1.10687215      -0.93684604
Cl      -1.72316923       0.57836211      -1.28852386      -1.54551765       0.56904779      -1.15314733
H       -0.62951731       0.30362935       1.14335993       0.54888912      -0.76142352       0.23001761
H       -0.30520146      -0.80281651      -0.27867385       0.92362894       0.71792415       1.01781099
H        0.34824388       0.91780582      -0.13113931       0.07360238      -1.38637975       0.28540999
Cl       1.69781301      -0.57802945       1.12698924       0.15403168      -0.24604082       0.55675478
6
Properties=species:S:1:pos:R:3:forces:R:3 energy=-26135.584576841164 free_energy=-26135.584576841164 dipole="-0.9918141683996259 -0.7543253170449151 -0.310284780944283" pbc="F F F"
C       -0.20776781      -0.22126750      -0.18550946      -1.81332872       0.25578895      -1.20440700
Cl       1.86123071       1.35772662       0.50208119       0.68990243       0.45376842       0.16035472
H        0.29904819      -0.70751688       0.56771345       1.02277768      -1.12042228       1.46277808
H       -0.51392955       0.75643170       0.16165418      -0.25749559      -0.10437827      -0.33417916
H        0.34398797      -0.22185428      -1.11791049      -0.27939063       0.03811832      -0.02274842
Cl      -1.79450689      -1.27784039      -0.42817977       0.63753484       0.47712485      -0.06179822
6
Properties=species:S:1:pos:R:3:forces:R:3 energy=-26135.32329304355 free_energy=-26135.32329304355 dipole="0.6432150687770564 0.0773482919040795 1.1295852980042904" pbc="F F F"
C        0.13701811       0.26649068       0.32999504      -1.59978838       2.45646879       2.32783321
Cl      -1.19428608       0.03493288      -1.98739280      -0.76182813       0.06182147      -1.19258520
H        0.41919654      -0.20414696      -0.55027557       1.26930128      -1.27617820      -0.93148670
H        0.15985491       1.38811820       0.16086110       0.40320927      -1.34919390       0.47355480
H       -0.94514140       0.03624482       0.49721881       1.27379430      -0.16672688       0.35794333
Cl       1.15827181      -0.15992011       1.87252010      -0.58468834       0.27380871      -1.03525945
6
Properties=species:S:1:pos:R:3:forces:R:3 energy=-26135.405855003817 free_energy=-26135.405855003817 dipole="0.6064320831106993 1.142852059603883 -0.07332256039939876" pbc="F F F"
C        0.35145630       0.25275890       0.16854261       0.43976107       0.93215790       0.48479890
Cl      -0.94487821      -2.06472084       0.24361077      -0.66236293      -1.45151770       0.20917532
H       -0.58424442       0.26258068       0.74125072       0.82899231       0.37828945       0.13842884
H        1.26052492      -0.11655484       0.65117472      -0.56228011       0.04284931       0.36921621
H        0.14134067      -0.39198020      -0.65146772       0.11983106       0.33485909      -1.12374467
Cl       0.80255088       1.98607584      -0.32178427      -0.16394140      -0.23663805      -0.07787461
6
Properties=species:S:1:pos:R:3:forces:R:3 energy=-26135.19380955478 free_energy=-26135.19380955478 dipole="1.1472858417723384 0.06570627209009378 0.6473195127459224" pbc="F F F"
C        0.81191644      -0.30822094      -0.19734862       0.64653581       1.63199176       0.86587003
Cl      -1.61792669      -0.29898907      -1.31995002      -1.92564760      -0.20768051      -1.01569883
H        0.16660260       0.44974798      -0.64184361       0.29545837      -0.49978796       0.35600502
H        0.29243152      -1.22701387      -0.02065399      -0.15740716      -0.19664154       0.18151688
H        1.68625671      -0.40702344      -0.80535362       0.87217507      -0.30340083      -0.13023736
Cl       1.28183695       0.43709359       1.42855223       0.26888551      -0.42448092      -0.25745574
6
Properties=species:S:1:pos:R:3:forces:R:3 energy=-26135.691014189655 free_energy=-26135.691014189655 dipole="0.6804818483580447 -1.3149371869426274 0.22490497177826266" pbc="F F F"
C        0.08507632      -0.43484257       0.07191568      -1.03455549      -1.77346781      -0.70306812
Cl      -1.18383821       2.07954879      -0.35042523      -0.30043567       0.44657774      -0.06782300
H       -0.17318355      -0.07253862       1.02352854       0.19321941       0.66726282       1.17772896
H       -0.87653199      -0.75175597      -0.37515479       0.76797616      -0.13312566       0.01626437
H        0.54162687       0.27588992      -0.56902288       0.67029257       0.41616795      -0.24786264
Cl       1.16946026      -1.91662394       0.32380281      -0.29649699       0.37658495      -0.17523957
6
Properties=species:S:1:pos:R:3:forces:R:3 energy=-26135.514077170843 free_energy=-26135.514077170843 dipole="0.5281838274622721 1.240141655956675 0.11383444725606931" pbc="F F F"
C        0.17507298       0.33086031       0.30952316       0.62140920       0.32681537       0.29480435
Cl      -0.87187209      -2.13998828      -0.00261620      -0.48423997      -1.18988960       0.05684395
H       -0.87151774       0.32643592       0.63494581       0.35831641       0.46589402      -0.65237668
H        0.76776389      -0.02073598       1.15020042       0.17113446       0.21155092       0.05167043
H        0.38713820      -0.33268921      -0.52272890      -0.32629593       0.54325430      -0.06003728
Cl       0.80449683       2.02865519      -0.13815106      -0.34032418      -0.35762501       0.30909523
6
Properties=species:S:1:pos:R:3:forces:R:3 energy=-26135.483031775144 free_energy=-26135.483031775144 dipole="0.8533298201006901 0.8462445182588317 -0.7087154819362281" pbc="F F F"
C        0.01091261       0.30696397      -0.52490418       0.36670019      -0.23282020      -0.14747369
Cl      -1.53715235      -1.37737332       0.96635134      -0.93506622      -0.85959520       0.63491605
H       -0.62836678       0.68151292       0.28855958       0.75734007       0.12486052      -0.49125318
H        0.27690796      -0.72796524      -0.31764263       0.31125142       0.46651093       0.25968181
H       -0.50861991       0.27189663      -1.47307685      -0.17025607       0.44719537      -0.24950702
Cl       1.55791082       1.26695888      -0.74579277      -0.32996938       0.05384858      -0.00636398
6
Properties=species:S:1:pos:R:3:forces:R:3 energy=-26135.1678516375 free_energy=-26135.1678516375 dipole="0.9419500676118637 0.3584717164768968 0.7288558803144026" pbc="F F F"
C        0.46645924       1.15992578       0.49409324       2.50518030      -0.04411378       1.63101465
Cl      -1.53144713      -0.05248888      -1.08987873      -1.51858006      -0.82767127      -1.09187490
H       -0.04406746       1.45000371       1.40835726      -0.20097752      -0.15261036      -0.02681141
H       -0.16736690       0.91216010      -0.32048338      -0.52598339       0.03370130      -0.48986490
H        1.22574088       1.91710690       0.25439390       0.12039974      -0.34170893       0.11405735
Cl       1.34456242      -0.46219021       0.88430581      -0.38003906       1.33240303      -0.13652078
6
Properties=species:S:1:pos:R:3:forces:R:3 energy=-26135.614322832123 free_energy=-26135.614322832123 dipole="1.319281720199458 -0.4222535477973582 -0.4005927328039308" pbc="F F F"
C        0.36209680      -0.19363135      -0.06792559      -0.25696543      -0.34470439      -0.51941541
Cl      -2.15492004       0.64405319       0.69168506      -0.83346461       0.23408066       0.30057132
H        0.48633662       0.61557528       0.59956576       0.01464469       0.79369625       0.54751629
H       -0.07139419      -1.02567957       0.45252727       0.32611954      -0.58650276       0.32593235
H       -0.38796233       0.05076589      -0.82207509       0.81509951       0.13908054      -0.36935471
Cl       2.03146896      -0.56823037      -0.67521126      -0.06543369      -0.23565030      -0.28524984
6
Properties=species:S:1:pos:R:3:forces:R:3 energy=-26135.45638991238 free_energy=-26135.45638991238 dipole="0.3479643489126123 0.8542239364368611 0.8843835692115619" pbc="F F F"
C        0.20476088       0.02262547       0.44648588       1.28132018       1.50528447       1.24823092
Cl      -0.54448235      -1.71516439      -1.46926152      -0.29308289      -0.94576145      -0.73340543
H        0.32576178       0.15348054      -0.59137818       0.47183585       0.60033562      -0.84409978
H       -0.78245828      -0.32451063       0.58689808      -0.86483529      -0.11380462       0.74819904
H        1.00544831      -0.55033015       0.89952566      -0.26029943      -0.32718106      -0.09853748
Cl       0.45950281       1.72800999       1.29253521      -0.33493842      -0.71887296      -0.32038728
6
Properties=species:S:1:pos:R:3:forces:R:3 energy=-26135.35559044299 free_energy=-26135.35559044299 dipole="0.9244012384209074 -0.17166152362757414 1.070191262294332" pbc="F F F"
C        0.16244330       0.12869033       0.47556179       0.09734900      -1.90838354      -2.90275950
Cl      -1.53843760       0.38861241      -1.66256589      -0.89592406       0.27458646      -0.99158094
H       -0.40611504      -0.69647581      -0.10752308       1.29209345       1.14021285       1.56485341
H        0.56779292       0.74227389      -0.32494083       0.35942012      -0.15461027       0.10524431
H       -0.53269168       0.74277550       0.94303651      -1.14411909       0.80778118       1.56207740
Cl       1.49394890      -0.45463728       1.48692048       0.29118058      -0.15958668       0.66216533
6
Properties=species:S:1:pos:R:3:forces:R:3 energy=-26135.47710958528 free_energy=-26135.47710958528 dipole="1.0439385210522494 -0.11410891401234083 0.8280772137322062" pbc="F F F"
C        0.41710239       0.26648755       0.17754416      -0.91201724      -1.74115511       2.80937821
Cl      -1.79007019       0.42434668      -1.51980833      -0.62333113       0.21944365      -0.52939419
H        0.94473884       0.95293956      -0.37146523       1.43155860       1.76823715      -1.00204386
H       -0.39556453       0.67510503       0.79391180       0.61599298      -0.03576272      -0.26615674
H       -0.01181118      -0.46851300      -0.46812441       0.22018189      -0.82028852       0.03415564
Cl       1.63346994      -0.54760732       1.46095249      -0.73238510       0.60952555      -1.04593906
6
Properties=species:S:1:pos:R:3:forces:R:3 energy=-26135.484566603984 free_energy=-26135.484566603984 dipole="-0.07403577062683481 1.311982832381049 -0.4642519167222999" pbc="F F F"
C        0.03109065       0.44343714       0.05202334       0.56709843       0.18007426       0.44689792
Cl       0.13693039      -2.10729300       0.85553077       0.09990538      -1.30980174       0.55614957
H       -0.72606226      -0.25122695      -0.17714969      -0.90963595      -0.42086450      -0.91575078
H       -0.11318330       0.59157599       1.12280838       0.51744384       0.51834762      -0.14618552
H        0.98425763      -0.01098780      -0.20715382      -0.11534287       0.30677080       0.23001586
Cl      -0.15158771       1.94768455      -0.89415603      -0.15946883       0.72547356      -0.17112706
6
Properties=species:S:1:pos:R:3:forces:R:3 energy=-26135.40852388766 free_energy=-26135.40852388766 dipole="0.4453228584260043 1.1883027488999105 -0.13139718639918255" pbc="F F F"
C        0.01745237       0.34619416      -0.24137886       1.40143950       1.04215579      -1.06269967
Cl      -0.86601932      -2.09805055       0.08153694      -0.60187075      -1.35564330       0.00275562
H        0.61586231      -0.36394819      -0.80970240       0.32114282       0.60697976       0.00646009
H       -0.83801767       0.63930121      -0.80003960      -0.91823124      -0.18628155       0.00213034
H       -0.09262766      -0.03455586       0.72055747      -0.61670149      -0.26447374       1.29040057
Cl       0.86905686       1.97390777       0.02552934       0.41422115       0.15726305      -0.23904695
6
Properties=species:S:1:pos:R:3:forces:R:3 energy=-26135.715695235234 free_energy=-26135.715695235234 dipole="0.7498513803805449 1.3188917753339426 -0.3955319984100702" pbc="F F F"
C        0.32264359       0.43304116       0.10995637      -0.46721859       0.05317360      -0.61396072
Cl      -1.11458863      -2.01822238       0.76501052      -0.20849361      -0.39820019       0.19605023
H        0.50145732       0.66138999       1.13577497       0.24687127       0.04738923       0.76417043
H        0.83027358      -0.50888824      -0.17023584      -0.56035985       0.77668911      -0.09723497
H       -0.77060534       0.43958600      -0.04243784       0.84042302      -0.37323758      -0.20817516
Cl       0.98931679       1.85466577      -0.82851326       0.14877776      -0.10581416      -0.04084980
6
Properties=species:S:1:pos:R:3:forces:R:3 energy=-26135.462919915026 free_energy=-26135.462919915026 dipole="-0.8918632800578836 0.43928607095504335 1.1577294477161677" pbc="F F F"
C       -0.46021391      -0.41856246       0.77052197       1.82213843      -1.29894295       0.44543525
Cl       1.31343841      -0.92921365      -1.61663190       0.52711258      -0.24959042      -0.66218096
H        0.52611128      -0.61982568       1.31238222      -1.44010763       0.50499665      -0.57179630
H       -0.18036254      -0.40788825      -0.28115151      -0.03279246       0.62456315       0.00088158
H       -1.06691601      -1.33387480       0.85405634      -0.54294970       0.73745745       0.63689168
Cl      -1.13700496       1.13817937       1.30196028      -0.33340122      -0.31848389       0.15076875
6
Properties=species:S:1:pos:R:3:forces:R:3 energy=-26135.343673107578 free_energy=-26135.343673107578 dipole="-1.0015415822024376 0.4504192932311984 0.8627924791365758" pbc="F F F"
C       -0.93254880       0.29989832      -0.07917283      -1.69344017       0.07688940      -0.83360327
Cl       1.34805397      -0.61586708      -1.60729816       1.18257572      -0.42173633      -0.90570849
H       -1.95144803       0.09319708      -0.45571324       0.15913030      -0.60615809       0.57467916
H       -0.16895774      -0.38501530      -0.49881267      -0.44722319       0.33443139       0.75555790
H       -0.80993058       1.27919018      -0.48550443       0.84825344       0.79336487      -0.21324888
Cl      -0.94876983       0.48618161       1.67506954      -0.04929611      -0.17679124       0.62232358
6
Properties=species:S:1:pos:R:3:forces:R:3 energy=-26135.69513969265 free_energy=-26135.69513969265 dipole="1.2615867883734435 -0.457235702140344 0.8395345342952115" pbc="F F F"
C        0.53253333      -0.13590393       0.05903656       1.14789263       2.25411236       0.78790634
Cl      -1.85251218       0.72032079      -1.39691967      -0.31044603       0.12142884      -0.27805525
H       -0.08656863      -0.89990718      -0.29663195      -0.79351322      -1.20579369      -0.19717029
H        1.17519365       0.25990799      -0.74867795      -0.49704999      -0.13314276       0.47108433
H       -0.04030507       0.66135200       0.56321104       0.13385221      -0.50950177      -0.83817400
Cl       1.64227341      -0.67488162       1.39062538       0.31926440      -0.52710299       0.05440886
6
Properties=species:S:1:pos:R:3:forces:R:3 energy=-26135.412715672643 free_energy=-26135.412715672643 dipole="-0.35127243833071853 -1.154406266164016 -0.7894909006135757" pbc="F F F"
C       -0.14704343      -1.38889436       0.16086281      -0.62530577      -2.60253914      -1.63286265
Cl       0.51038649       1.29025091       1.38711234       0.20725130       0.77547884       0.45861396
H        0.73355303      -2.07383924       0.05872668      -0.85357450       0.56574044       0.20993800
H       -1.08068325      -1.92285926       0.40505656       0.46809141      -0.29099557      -0.20988011
H       -0.03198057      -0.65769594       0.89605962       0.62672509       1.58567370       0.71746508
Cl      -0.44978614      -0.68732737      -1.48028144       0.17681247      -0.03335826       0.45672571
6
Properties=species:S:1:pos:R:3:forces:R:3 energy=-26135.226090982356 free_energy=-26135.226090982356 dipole="-0.545982720931612 -0.3970797554950841 -1.2127944227817553" pbc="F F F"
C       -1.24878685       0.00243518      -0.66565254       1.07198819       0.53912800      -0.70650955
Cl       0.35502628       0.68639481       1.72072505       0.32295060       0.25233165       0.67208847
H       -1.29529818      -0.23231846       0.34897275      -0.23912565      -1.79512706       1.52488270
H       -2.13518688      -0.11138424      -1.23663776      -0.69467277      -0.26126854      -0.69365309
H       -0.97458164       1.00019681      -0.43798093       0.07887787       1.47784510      -0.76828704
Cl       0.19333722      -0.70588691      -1.45749787      -0.54001824      -0.21290916      -0.02852149
6
Properties=species:S:1:pos:R:3:forces:R:3 energy=-26135.70021902257 free_energy=-26135.70021902257 dipole="1.2738396406166461 -0.4842600472566939 0.8220652563143193" pbc="F F F"
C        0.55798852      -0.13277971       0.04288030       0.61010742      -1.80730785      -1.06684615
Cl      -1.85026368       0.72535835      -1.39261253      -0.34491697       0.13845707      -0.29782201
H        0.05334762      -1.07307624      -0.28964867       0.00446259       1.16284821       0.42682647
H        1.21723477       0.15422872      -0.79687827      -0.42647919       0.28243562       0.59052615
H       -0.11459419       0.63131364       0.37863989      -0.17532918       0.13805620       0.01118821
Cl       1.62833882      -0.67219471       1.39821239       0.33215533       0.08551074       0.33612733
6
Properties=species:S:1:pos:R:3:forces:R:3 energy=-26135.26305130115 free_energy=-26135.26305130115 dipole="0.6496294665219314 1.097771193209939 0.46428625608984775" pbc="F F F"
C       -0.03017262       1.44868273      -0.09987080       0.70421429      -0.26633385      -1.83964144
Cl      -1.04688272      -1.14949262      -0.80000057      -0.57480996      -0.85187448      -0.36955459
H       -0.03525710       1.05079283      -1.12845871       0.02706160      -0.01625548       0.60168086
H        0.31436633       2.45620418      -0.15717774      -0.02974821       1.06187597       0.47538805
H       -0.98206963       1.24785939       0.29888411      -1.29005296       0.32849512       0.39307242
Cl       1.07709393       0.52345529       0.86189604       1.16333523      -0.25590728       0.73905471
6
Properties=species:S:1:pos:R:3:forces:R:3 energy=-26135.545943726065 free_energy=-26135.545943726065 dipole="1.1470168546460822 -0.4669337968798044 0.7806521780221723" pbc="F F F"
C        0.80544441      -0.72867041      -0.11932045      -1.78775811      -0.15943290       0.81221452
Cl      -1.65218495       0.46606060      -1.46824838      -0.63907347       0.27767361      -0.43995908
H       -0.29911360      -0.50711519      -0.28381114       1.34377894       0.00042683       0.54419256
H        0.91179133      -1.81591220      -0.19305056       0.61344994       0.25980791       0.08152694
H        1.31056187      -0.13537123      -0.85487765       0.58437410       0.02151196      -0.28729046
Cl       1.32460193      -0.14927284       1.54654319      -0.11477139      -0.39998741      -0.71068448
6
Properties=species:S:1:pos:R:3:forces:R:3 energy=-26135.304044858894 free_energy=-26135.304044858894 dipole="-1.2567695993239094 -0.48934322405605457 -0.16223086287925687" pbc="F F F"
C       -0.88098111       0.30721413       0.20110825      -2.22427743       1.40954896      -2.03676071
Cl       1.87119417       1.06855646       0.39702613       1.71783734       0.64194889       0.19438436
H       -1.22523748       0.52266898       1.20320946      -0.39150624      -0.35111501       0.21638653
H       -1.27864502       1.08960333      -0.54095112       0.52393498      -0.87745265       1.32353259
H        0.18378050       0.36253220       0.15924650       0.50032797      -0.53051829      -0.07296137
Cl      -1.50673361      -1.22879770      -0.48852368      -0.12631663      -0.29241191       0.37541861
6
Properties=species:S:1:pos:R:3:forces:R:3 energy=-26135.305928241534 free_energy=-26135.305928241534 dipole="1.0516559922776318 0.1301100972454975 0.7794898101160679" pbc="F F F"
C        0.91863305       0.99623704       0.37726856      -1.24779631      -1.30385429      -0.94420553
Cl      -1.35958289       0.24541614      -1.16288641      -0.96790613      -0.20541795      -0.75854402
H       -0.14845479       1.27838741       0.36326168       0.68637760       0.09250803       0.42259278
H        1.13164693       0.86093896      -0.68973564       0.39507994       0.47895798       0.40432438
H        1.57643764       1.58516636       0.95443991       0.89273889       0.76776705       0.52696320
Cl       0.97555445      -0.68886020       1.01720623       0.24150600       0.17003918       0.34886919
6
Properties=species:S:1:pos:R:3:forces:R:3 energy=-26135.26172377624 free_energy=-26135.26172377624 dipole="-0.7914637970820251 -0.4699428842402713 -1.101151042232861" pbc="F F F"
C       -0.39602406       0.40437002      -0.82290678      -1.23124908      -0.30360948      -1.26582308
Cl       1.18352203       1.02473235       1.47855993       0.77181835       0.46745184       1.18301077
H       -1.17040163       1.02518788      -0.34164054       0.56483372      -0.13358758      -0.58791897
H        0.04668534       0.68217769      -1.76636464      -0.36324773       0.91653385      -0.34746233
H        0.39022606       0.20762820      -0.18048445       1.19482631       0.11729581       1.35654591
Cl      -1.02848668      -1.21619080      -1.13467471      -0.93698156      -1.06408446      -0.33835228
6
Properties=species:S:1:pos:R:3:forces:R:3 energy=-26135.656514720366 free_energy=-26135.656514720366 dipole="-0.5973877529475491 -0.948674537272446 1.0188631223729758" pbc="F F F"
C       -0.20090868      -0.30041345       0.25853985      -0.33872412       0.34248771      -0.64286040
Cl       0.92331887       1.45985413      -1.64209002       0.27944391       0.42287700      -0.52639456
H        0.58866167       0.38674330       0.54751850      -0.46505391       0.07553892       0.65697328
H       -1.03401673       0.19496922      -0.24665580       0.20773871       0.17058617       0.53838395
H        0.25553471      -0.88853138      -0.50326121       0.26199623      -0.89084118      -0.35673342
Cl      -0.84985051      -1.34934527       1.56024786       0.05459918      -0.12064863       0.33063115
6
Properties=species:S:1:pos:R:3:forces:R:3 energy=-26135.507115757362 free_energy=-26135.507115757362 dipole="-1.0309074782660395 -0.40381456210329747 1.1264504156956827" pbc="F F F"
C       -0.45660156      -0.29709481       0.21831747       2.70896053       1.42286639      -1.44109721
Cl       1.50189640       0.54158470      -1.76225751       0.46543899       0.16472574      -0.56737924
H       -0.71241702      -0.99501183      -0.54377447      -0.68542978      -0.88332495      -0.21934000
H        0.66479249      -0.36901310       0.29659613      -1.22317658      -0.24930974       0.63353008
H       -0.50312065       0.68795909      -0.27764419      -0.59114896      -0.25276286       0.64747082
Cl      -1.33153272      -0.42170092       1.70321124      -0.67464421      -0.20219458       0.94681555
6
Properties=species:S:1:pos:R:3:forces:R:3 energy=-26135.619617304154 free_energy=-26135.619617304154 dipole="1.3416437881320715 -0.43112021517889704 0.8926310929066146" pbc="F F F"
C        0.45013495      -0.12242925       0.25007271      -0.36302092      -1.32933652      -2.87693149
Cl      -1.94977907       0.65622234      -1.33403444      -0.28860779       0.10960736      -0.20370143
H       -0.25683126       0.43243623       0.76416853      -1.26956516       0.92342599       1.30455062
H       -0.11112451      -0.95606269      -0.29650481       1.10923194       0.95198025       1.04670831
H        0.87176401       0.52662522      -0.50651549      -0.09794174       0.04621087      -0.25423337
Cl       1.78294100      -0.61482671       1.25041073       0.90990367      -0.70188794       0.98360738
6
Properties=species:S:1:pos:R:3:forces:R:3 energy=-26135.476306314336 free_energy=-26135.476306314336 dipole="0.7362229801336075 1.031092582866763 0.5756110963001344" pbc="F F F"
C       -0.11117709       1.20387942       0.10430290      -0.29510732       0.13070678       1.71850938
Cl      -1.35804688      -1.22000181      -0.97441287      -0.51887323      -0.93272241      -0.51537022
H       -0.82149820       0.36172822       0.16346516       0.49352175       0.38797122       0.16746336
H        0.09476226       1.33339895      -0.93209329       0.29274946       0.37249921      -0.67708214
H       -0.50447925       2.09614939       0.63044264       0.44261108      -0.23420057      -0.44232672
Cl       1.43072425       0.70430640       0.94300268      -0.41490174       0.27574576      -0.25119366
6
Properties=species:S:1:pos:R:3:forces:R:3 energy=-26135.389391727756 free_energy=-26135.389391727756 dipole="1.1558300682500502 -0.4837203277777412 0.6460346286736738" pbc="F F F"
C        0.95480713      -0.87766405      -0.24063327       2.00559200      -0.91902064       2.92931072
Cl      -1.52148368       0.38869357      -1.31948052      -0.77913756       0.39819492      -0.42733818
H        1.60900943      -0.34503207      -0.87907833       0.52973721       0.58794485      -0.72670681
H       -0.05777579      -0.72949557      -0.46816931      -1.36878484      -0.15537398      -0.57541898
H        1.33695809      -1.91369988      -0.06510210      -0.51654469       0.76573876      -0.14975038
Cl       1.11585644      -0.00635912       1.44117007       0.12913788      -0.67748391      -1.05009638
6
Properties=species:S:1:pos:R:3:forces:R:3 energy=-26135.41941305821 free_energy=-26135.41941305821 dipole="1.2436351436688564 -0.3054754819269585 0.9170931624985916" pbc="F F F"
C        0.48916865      -0.00583491       0.17859268      -0.93002431       1.17241565      -1.10252525
Cl      -1.79785921       0.47926077      -1.40165954      -0.61503647       0.16743044      -0.50165441
H        0.22551785       1.02839089       0.44089461      -0.10055506      -0.45475378      -0.89066525
H       -0.34781603      -0.63752678       0.24604974      -1.23503662      -0.44719322       0.35580540
H        0.84932452      -0.20876019      -0.82280430       0.29529977       0.70004918      -0.12593269
Cl       1.61144886      -0.48246183       1.34501272       2.58535269      -1.13794827       2.26497221
6
Properties=species:S:1:pos:R:3:forces:R:3 energy=-26135.447795531865 free_energy=-26135.447795531865 dipole="1.2054239367575799 -0.4908060767743424 0.9726720326660792" pbc="F F F"
C        0.46166288      -0.70422242       0.17143710      -1.59199474      -2.32052474      -0.49629200
Cl      -1.71548569       0.47338782      -1.48047658      -0.47656990       0.18053970      -0.41084959
H        0.79651582      -0.29576232      -0.76414267      -0.25139927       0.48230967      -0.19839546
H       -0.54340219      -0.36242690       0.47216377       0.66558145      -0.03917907      -0.70281734
H        0.37470174      -1.85805635      -0.01551666       0.60820864       1.89563262       0.90810150
Cl       1.54121571      -0.16323857       1.43113454       1.04617382      -0.19877819       0.90025289
6
Properties=species:S:1:pos:R:3:forces:R:3 energy=-26135.548315640677 free_energy=-26135.548315640677 dipole="-1.485926413149623 -0.3176123443465551 -0.12292646686943558" pbc="F F F"
C       -0.43822368      -0.55871343      -0.15784949      -0.42943664       1.34354442       0.81837287
Cl       2.32352090       0.22198128       0.09262687       0.78092947       0.09908697       0.02492720
H       -0.46641554      -1.56893001      -0.44821898      -0.08182452      -1.48299161      -0.01997974
H        0.11779477      -0.36580810       0.79542359      -0.67024090      -0.07981565      -1.27041283
H       -0.10388342       0.00488614      -1.00721050       0.72332605       0.34927386       0.15991059
Cl      -2.16217735       0.02219355      -0.02037817      -0.32275346      -0.22909799       0.28718190
6
Properties=species:S:1:pos:R:3:forces:R:3 energy=-26135.401217819417 free_energy=-26135.401217819417 dipole="-0.18495503778104666 -1.4172122094220903 0.3378004565170973" pbc="F F F"
C        0.36111457      -0.89126964      -0.35958982       0.00548055      -0.90552372       2.40594187
Cl       0.54505970       1.97084041      -0.81752303       0.16959080       0.97292985      -0.20610575
H        1.31542191      -0.61074027       0.16107329      -0.97757879      -0.31989663      -1.00695321
H       -0.23094135      -0.05420024      -0.60146523       0.03020824       0.96432578      -0.66344353
H        0.37779805      -1.65126896      -1.11228082       0.48123781      -0.36915957      -0.48360065
Cl      -0.70898985      -1.60300462       0.98350688       0.29106139      -0.34267571      -0.04583872
6
Properties=species:S:1:pos:R:3:forces:R:3 energy=-26135.600687038663 free_energy=-26135.600687038663 dipole="0.09201754191919632 -1.3526973586544924 -0.6188005907375114" pbc="F F F"
C       -0.38343447      -0.49363526      -0.24148953       0.41020431       0.13794211      -1.03432814
Cl      -0.35867333       2.11883942       0.96390174      -0.15536333       0.80346457       0.35904633
H       -1.10235588      -0.74814702       0.50315813      -0.69587625      -0.67120914       0.18914658
H       -0.79832934       0.09754705      -1.07045833       0.03127674      -0.59449871       0.22286679
H        0.29761728       0.15080575       0.25538022       0.85650407       0.25371919       0.19246265
Cl       0.53416907      -1.93737692      -0.87321215      -0.44674555       0.07058198       0.07080578
6
Properties=species:S:1:pos:R:3:forces:R:3 energy=-26135.39445375047 free_energy=-26135.39445375047 dipole="-1.0208958783091298 0.3991604866371476 -1.0047757699063797" pbc="F F F"
C       -0.89951653      -0.16658809      -0.12442456       0.94883910      -1.35755969      -3.36362334
Cl       1.26743158      -0.79547379       1.68682065       0.56096910      -0.22547171       0.61102991
H       -1.81563919      -0.71028096       0.02961085      -0.40071962      -0.19119093      -0.41842813
H       -0.69013281       0.45621823       0.64489977       0.59073453       1.92835840       2.28822518
H        0.00552308      -0.76762465      -0.32368031      -0.98725979      -0.00964984       0.56129989
Cl      -0.89156857       0.88096745      -1.65463937      -0.71256333      -0.14448622       0.32149649
6
Properties=species:S:1:pos:R:3:forces:R:3 energy=-26135.70938330738 free_energy=-26135.70938330738 dipole="-0.7326148080779981 1.3035328274932096 -0.2771538964504933" pbc="F F F"
C       -0.31517176       0.34426402      -0.00565899      -0.37766260      -0.89924434      -0.39113378
Cl       1.10096414      -2.10607659       0.49451711       0.21922330      -0.47724710       0.13050601
H        0.78286466       0.31424379      -0.09511022      -0.73925586       0.28351790       0.04876853
H       -0.75112698      -0.49568618      -0.62450546       0.46265125       1.35795829       0.46554420
H       -0.64744374       0.18390796       1.02279518       0.30612637       0.12357802      -0.19071083
Cl      -0.97667191       1.98936459      -0.50122049       0.12891753      -0.38856277      -0.06297413
6
Properties=species:S:1:pos:R:3:forces:R:3 energy=-26135.477000517472 free_energy=-26135.477000517472 dipole="-1.004456610959613 -1.0314598270882995 -0.31939216574713525" pbc="F F F"
C       -0.05500025      -0.87688495      -0.50079204       1.01259417      -0.21397899       0.52850315
Cl       1.72237602       1.36440098       0.29272534       0.73146729       0.85346165       0.23361124
H        0.34741330      -1.87595184      -0.48953321       0.36059383      -0.45083104       0.44331037
H        0.44029039      -0.15267503       0.17641066      -0.16082239      -0.73741390      -0.37198744
H        0.10706335      -0.53618458      -1.49526250      -0.35524685       0.64109368      -0.90261826
Cl      -1.72918328      -0.99437009      -0.07162900      -1.58858605      -0.09233139       0.06918094
6
Properties=species:S:1:pos:R:3:forces:R:3 energy=-26135.590072457722 free_energy=-26135.590072457722 dipole="0.8996199823649486 -0.04336340482338833 1.1394756751041586" pbc="F F F"
C        0.04115950       0.43250395       1.01038142       0.76024179       0.55410740      -0.04863426
Cl      -1.59308222       0.29971575      -1.51892024      -0.61306086      -0.01816000      -0.78783028
H       -0.75584537      -0.09589608       1.51885295       0.14782727      -0.12183882       0.41481015
H       -0.26591810       0.48795266      -0.04008837       0.27458741       0.03761811       0.19250605
H        0.25465228       1.43671969       1.41694520      -0.22382881      -0.52331021       0.02863600
Cl       1.60094911      -0.49825485       1.09424981      -0.34576680       0.07158352       0.20051235
6
Properties=species:S:1:pos:R:3:forces:R:3 energy=-26135.396865720457 free_energy=-26135.396865720457 dipole="1.1801486498538512 -0.47657903475358765 -0.6549217376416794" pbc="F F F"
C        0.23259905      -0.59427255      -0.40329602       0.16345616      -1.71429837       0.22168508
Cl      -1.96769435       0.51160889       0.94680188      -1.38182560       0.46126841       0.75441881
H        0.29415824      -1.45236768       0.30005754      -0.51606704       0.68066171      -0.31358327
H       -0.26350328      -0.91082294      -1.31671612      -0.18304640       0.08817179      -0.01695623
H       -0.23645174       0.26254598       0.04434865       0.05459966       0.06031274      -0.00026874
Cl       1.89473796      -0.25052970      -0.78251198       1.86288321       0.42388372      -0.64529564
6
Properties=species:S:1:pos:R:3:forces:R:3 energy=-26135.768691424 free_energy=-26135.768691424 dipole="1.1742874507898362 -0.20843693782640235 0.9573976939111887" pbc="F F F"
C        0.46687729      -0.06455459       0.13990613       0.71284412      -0.35338654       1.14467481
Cl      -1.82775928       0.33132552      -1.63717261      -0.17780494       0.03988555      -0.21137251
H        0.37060997       0.98545290      -0.04646594       0.17547258       0.39788235      -0.09990831
H       -0.46467762      -0.45763720       0.48323605      -0.41156785      -0.25948156       0.02003279
H        0.88640111      -0.62793931      -0.67514321       0.02619074      -0.02797995      -0.23250586
Cl       1.64704460      -0.30660648       1.59654828      -0.32513465       0.20308016      -0.62092092
6
Properties=species:S:1:pos:R:3:forces:R:3 energy=-26135.520899880354 free_energy=-26135.520899880354 dipole="-1.1405147812334293 -0.6378467898178461 0.518463291375666" pbc="F F F"
C       -1.02998126       0.24612970       0.89667137      -0.41183542      -0.83385674      -1.72875377
Cl       1.52334251       1.28606644      -0.46461595       0.68153590       0.34076306      -0.33803172
H       -1.11477353       0.00696600       1.91511921       0.14744045      -0.08699429       1.53439215
H       -1.91679570       0.80104725       0.57584358       0.17926292      -0.08967001      -0.12568970
H       -0.07752558       0.67665570       0.53379854      -0.36413275       0.08123786       0.40381918
Cl      -1.08596388      -1.41167462       0.07480271      -0.23227111       0.58852012       0.25426387
6
Properties=species:S:1:pos:R:3:forces:R:3 energy=-26135.686377036734 free_energy=-26135.686377036734 dipole="0.2986844724655656 -1.5079030765571881 -0.5669863343427467" pbc="F F F"
C       -0.01734936      -0.69872578       0.13756236      -0.78312110      -0.35869017       0.38785911
Cl      -0.49383562       2.12823850       1.00802122      -0.10048782       0.43731111       0.22600811
H       -0.08720801       0.23423767      -0.36089429      -0.14009852       0.82782929      -0.06094662
H        0.75486502      -0.67526992       0.87671823       0.26598442       0.20927752       0.54219492
H       -0.99569807      -0.97096608       0.58034000       0.62913740       0.02415769      -0.37281383
Cl       0.50904151      -1.85135021      -1.08579822       0.12858562      -1.13988543      -0.72230169
6
Properties=species:S:1:pos:R:3:forces:R:3 energy=-26135.28368306285 free_energy=-26135.28368306285 dipole="-1.106053869088735 -0.7663305455750293 0.06608490896779641" pbc="F F F"
C       -0.43942071      -1.13120687       0.68447259      -1.98290300       1.13042776       1.14623250
Cl       1.65177879       0.74576786       0.20850145       1.08340677       0.77832242      -0.19793315
H       -1.12014019      -1.59188636       1.38618865      -0.50772147      -0.30253287       0.17224558
H        0.18754475      -0.40979979       1.20734080      -0.05694711      -0.13508341      -0.46381554
H        0.10392897      -1.87473550       0.20305138       1.15040285      -1.03088612      -1.07008576
Cl      -1.47933371      -0.25227396      -0.51993032       0.31376196      -0.44024777       0.41335637
6
Properties=species:S:1:pos:R:3:forces:R:3 energy=-26135.540168539348 free_energy=-26135.540168539348 dipole="-1.5296366073786505 0.1093882542944946 -0.07084723239496196" pbc="F F F"
C       -0.56461191       0.42415086       0.09629021       1.26333126       0.91935457      -0.64540891
Cl       2.35310055       0.03884326       0.19195057       0.87985591      -0.02316616       0.06800651
H       -0.55400328       1.46644131      -0.29543571       0.15469451      -0.71035900       0.24790013
H        0.31845290      -0.14818684      -0.32967534      -1.39847815       0.54908970       0.58778485
H       -0.53901649       0.45339953       1.16994473       0.61785100       0.04376691       0.41618742
Cl      -2.13977708      -0.23292798      -0.24006719      -1.51725454      -0.77868602      -0.67447001
6
Properties=species:S:1:pos:R:3:forces:R:3 energy=-26135.564801599907 free_energy=-26135.564801599907 dipole="1.0859304340152223 -0.21509738074874682 1.0971266262627257" pbc="F F F"
C        0.45357495       0.36960105       0.44831397      -1.25464144      -0.09209223      -0.90040562
Cl      -1.59144621       0.52643570      -1.60741056      -0.56884291       0.15218043      -0.58800471
H        0.48993577       1.42795971       0.69257312       0.63796408      -0.01040169       0.16966891
H       -0.60563077       0.09685305       0.49199830       0.40545588      -0.18139135       0.23421089
H        0.73183292       0.14287306      -0.57471627       0.04587420       0.47719541      -0.02082610
Cl       1.42024858      -0.69908183       1.43817408       0.73419019      -0.34549059       1.10535664
6
Properties=species:S:1:pos:R:3:forces:R:3 energy=-26135.56153266359 free_energy=-26135.56153266359 dipole="1.1611870683261944 -0.36565806206122614 0.9570925216472742" pbc="F F F"
C        0.25916083       0.03656125       0.57585217      -0.23064631       0.78255554      -1.51532559
Cl      -1.85201998       0.63811546      -1.33838001      -0.63699008       0.24189037      -0.44878251
H       -0.46155150      -0.33082867       1.24321655      -1.24513268      -0.40594728       0.67645891
H       -0.00710382      -0.19580992      -0.46341026       0.34059129      -0.57693461       0.50401517
H        0.21753047       1.12380465       0.53754840       0.55875999       0.08000533       0.55022955
Cl       1.77135293      -0.66748304       1.10581431       1.21341780      -0.12156935       0.23340447
6
Properties=species:S:1:pos:R:3:forces:R:3 energy=-26135.62287837788 free_energy=-26135.62287837788 dipole="-1.4712797177255748 0.07556642364604889 -0.24681596058975622" pbc="F F F"
C       -0.42009579       0.02902632      -0.38136495       0.50626076      -0.55637216       0.22260856
Cl       2.33828379      -0.11524253       0.23170658       0.88373206      -0.02115304       0.05704898
H       -0.20627216      -0.64810457      -1.22848062      -0.27508831       0.23487109       0.64406262
H        0.04544088      -0.30018847       0.54920819      -0.25792664      -0.29119730      -0.45262224
H        0.05662786       0.98343625      -0.57182861      -0.58334486       0.37100308      -0.16043745
Cl      -2.19298597       0.10440870      -0.06692000      -0.27363300       0.26284832      -0.31066048
6
Properties=species:S:1:pos:R:3:forces:R:3 energy=-26135.548011241215 free_energy=-26135.548011241215 dipole="0.5792782816690888 1.480278986861714 0.042307613736668616" pbc="F F F"
C       -0.15794545       0.69838391      -0.04453857       0.66800443       0.14384095      -0.94010779
Cl      -1.07029261      -2.18302521      -0.09090762      -0.20335717      -0.43103707       0.02070273
H       -0.49604736       0.36280606       0.89103259      -0.99944211       0.60699604       1.56282907
H        0.17744024      -0.28115259      -0.35336894       0.56900478       0.13525186      -1.09985304
H       -0.85608641       1.18061370      -0.72059017      -0.39706045      -0.48531868       0.22846132
Cl       1.15720866       1.91051028       0.11119937       0.36285052       0.03026691       0.22796772
6
Properties=species:S:1:pos:R:3:forces:R:3 energy=-26135.515690518765 free_energy=-26135.515690518765 dipole="1.1661884830131053 -0.4312990590840424 0.9980355021893534" pbc="F F F"
C        0.45366937      -0.12582864       0.21257629      -2.15137154       2.50029668      -0.67361826
Cl      -1.70435478       0.65660299      -1.51029167      -0.49573550       0.20490623      -0.46105136
H       -0.49487511       0.12736445       0.70933687       0.24848195      -0.52282935      -0.32743098
H        0.26370709      -0.81852724      -0.57513962       0.09432128      -0.87820619      -0.16789524
H        0.66166210       0.84029442      -0.30203390       0.64967181      -0.70411273       0.57114849
Cl       1.53840384      -0.61821080       1.44303992       1.65463200      -0.60005463       1.05884735
6
Properties=species:S:1:pos:R:3:forces:R:3 energy=-26135.53722922075 free_energy=-26135.53722922075 dipole="-0.042452915744322445 -1.4343172796002803 -0.24352790211660147" pbc="F F F"
C       -0.54839095      -0.69358757      -0.66438712      -1.12280284      -1.01606612      -0.63920996
Cl      -0.21277189       2.21740707       0.11938803       0.01518459       0.93760518       0.21877896
H       -0.59154849      -0.98840037      -1.74410276      -0.02127265       0.24942542       0.94310975
H       -0.26282368       0.34908299      -0.50558115       0.88358704      -0.24060152       0.03796503
H       -1.54808175      -0.72417601      -0.19159476       0.35823731      -0.39483728      -0.38465375
Cl       0.46688747      -1.94363890       0.17513277      -0.11293345       0.46447432      -0.17599002
6
Properties=species:S:1:pos:R:3:forces:R:3 energy=-26135.5669586969 free_energy=-26135.5669586969 dipole="-0.10374461268199549 1.499900246521009 -0.522798486771439" pbc="F F F"
C        0.08758881       0.42058375      -0.50081801      -0.13961981      -0.54177205       1.44197948
Cl       0.22774903      -2.28847064       0.62466479       0.09218099      -0.63379625       0.15985490
H        1.08208191       0.13692193      -0.24040175       0.98568398       0.61549316       0.54310630
H       -0.01148938      -0.00634244      -1.45506512      -0.88075818      -0.17223005      -1.46753750
H       -0.51086382      -0.08690982       0.24912468      -0.23433991       0.02697747      -0.36867388
Cl      -0.27334101       2.14472874      -0.41385413       0.17685294       0.70532773      -0.30872930
6
Properties=species:S:1:pos:R:3:forces:R:3 energy=-26135.562181602134 free_energy=-26135.562181602134 dipole="-1.150370400915753 -0.9870763458773095 -0.31777411540735606" pbc="F F F"
C       -0.14614155      -0.73697529      -0.14186519       0.57439598       0.58490387       1.55178807
Cl       1.88016618       1.32004658       0.45869746       0.62777632       0.50934674       0.12638404
H        0.32587973      -1.66333650       0.17399754       0.01796241       0.04098047       0.15753759
H        0.03714590       0.11158855       0.55320971      -0.44764571      -1.00244142       0.00846994
H        0.34029988      -0.34293687      -0.98655649       0.30785063       0.10232379      -1.54328401
Cl      -1.85064985      -1.01647388      -0.40325692      -1.08033963      -0.23511346      -0.30089563
6
Properties=species:S:1:pos:R:3:forces:R:3 energy=-26135.674186275304 free_energy=-26135.674186275304 dipole="1.005522520972953 -0.01573983530911226 1.2109228293526102" pbc="F F F"
C        0.12842118       0.42194649       0.80341369      -0.27191815      -0.87065438       0.32197491
Cl      -1.67202445       0.25579120      -1.65312984      -0.41282128       0.00765816      -0.45062765
H        0.01752885       0.21485421      -0.26224329       0.00300114       0.46195281       0.18006505
H        0.26221032       1.46621684       1.07134811      -0.07865752       0.03302863      -0.17328304
H       -0.77256143      -0.02120045       1.29409646       0.95175934       0.31744810      -0.16775525
Cl       1.64252651      -0.44595054       1.32111774      -0.19136353       0.05056668       0.28962598
6
Properties=species:S:1:pos:R:3:forces:R:3 energy=-26135.681177971877 free_energy=-26135.681177971877 dipole="1.08959160687271 -0.2605736113120194 1.0401503742397955" pbc="F F F"
C        0.39720888      -0.11618888       0.21974321      -0.15022018      -1.35712562      -0.93698952
Cl      -1.67321841       0.36584637      -1.67218035      -0.45939390       0.08031688      -0.48219086
H       -0.44918992       0.48846841       0.45550627      -0.18593961       0.58990780       0.51386502
H       -0.00497272      -1.12350996       0.02115495       0.26562852       0.49243948       0.01106505
H        0.84878086       0.25505610      -0.71568420       0.21154303      -0.08479669       0.81627226
Cl       1.52741725      -0.31567515       1.60452449       0.31838214       0.27925814       0.07797805
6
Properties=species:S:1:pos:R:3:forces:R:3 energy=-26135.601783155173 free_energy=-26135.601783155173 dipole="-1.39474576181387 0.522976025196406 0.14891633033615795" pbc="F F F"
C       -0.62985369      -0.19722638       0.16154784      -0.13434150      -0.56070532      -0.60936448
Cl       2.09185447      -1.03111713      -0.18589312       0.89046134      -0.42352000      -0.10895153
H       -0.45978108      -0.59938800      -0.84672268      -0.21339626       0.55713999       0.23230356
H       -1.00359710      -1.02342031       0.75138797      -0.36883544       0.01467707       0.35368630
H        0.34729537       0.08428862       0.53816949      -0.29405712       0.58808623       0.05583194
Cl      -1.84671528       1.14168734       0.11856650       0.12016898      -0.17567795       0.07649422
6
Properties=species:S:1:pos:R:3:forces:R:3 energy=-26135.472770298155 free_energy=-26135.472770298155 dipole="0.4561336958911169 0.6726019102038294 -1.2657206651787611" pbc="F F F"
C        0.32882327       0.22013389      -0.30686619       1.73811465       1.09684287       0.83827115
Cl      -0.59303027      -1.02022628       2.08771478      -0.13921125      -0.27219118       0.66190880
H       -0.60942619      -0.24947780      -0.10754520      -0.21601019      -0.63571598      -0.46620431
H        0.42820375       1.00230422       0.44558468      -0.59233335       0.71612192      -0.44799733
H        1.25430035      -0.30765695       0.00868925      -0.85612360      -0.62183134      -1.13829417
Cl       0.45110760       0.93298343      -1.99360287       0.06556375      -0.28322629       0.55231586
6
Properties=species:S:1:pos:R:3:forces:R:3 energy=-26135.525229494302 free_energy=-26135.525229494302 dipole="1.2512742183488483 0.24018962155110096 -0.7706127618651896" pbc="F F F"
C        0.80269211       0.14493071       0.14892159       2.26052424      -0.92148445       0.04292511
Cl      -1.79785297      -0.35755273       1.47388389      -0.75399634      -0.16964575       0.53537331
H       -0.23817524       0.27074787       0.31147551      -1.13589792       0.19909324      -0.86665980
H        1.31915691       0.91686563       0.72582166       0.20592127      -0.32260554      -0.00122748
H        1.04514159      -0.90154749       0.48461826      -0.04811171       1.21193965      -0.29802623
Cl       1.46543358       0.30031387      -1.56761557      -0.52843954       0.00270285       0.58761508
6
Properties=species:S:1:pos:R:3:forces:R:3 energy=-26135.669948573286 free_energy=-26135.669948573286 dipole="-1.1453043498784579 1.0844472979344535 0.22007597625598374" pbc="F F F"
C       -0.83742974       0.08053627      -0.05069854       1.33319849       0.53550105      -0.03853873
Cl       1.49762012      -1.79849721      -0.38026682       0.38587921      -0.41913283      -0.06561856
H        0.13790130       0.05281198      -0.56745511      -0.79357836      -0.05189348       0.05410168
H       -1.63821667      -0.37169891      -0.59909449      -0.54060742       0.15472751      -0.49608549
H       -0.68294047      -0.45741311       0.85695078       0.05546861      -0.33950968       0.64592392
Cl      -1.15180657       1.79328393       0.40624752      -0.44036052       0.12030744      -0.09978282
6
Properties=species:S:1:pos:R:3:forces:R:3 energy=-26135.38332041789 free_energy=-26135.38332041789 dipole="-0.15428993493481516 -0.8487480021951112 -1.1057766627820442" pbc="F F F"
C        0.10698575      -1.17081346      -0.21980310       0.30652791       2.06327055      -1.53710400
Cl       0.35729176       0.93148056       1.96514091       0.14417458       0.59821002       0.75266897
H        0.15403724      -0.32308275       0.45999628      -0.73986486       0.18815683       0.07194366
H        1.14475452      -1.42963976      -0.25287399       0.47043217      -0.91835349      -0.65311208
H       -0.60026461      -1.89718832       0.06373916      -0.66917361      -1.02325195       0.08376094
Cl      -0.41340238      -0.43100805      -1.89837006       0.48790381      -0.90803197       1.28184251
6
Properties=species:S:1:pos:R:3:forces:R:3 energy=-26135.441333039118 free_energy=-26135.441333039118 dipole="0.6501543573970897 -1.2230951910962002 -0.2625826971515447" pbc="F F F"
C       -0.11318526      -0.65404319       0.01504900      -0.72346316       1.40235936      -0.20699194
Cl      -1.22213922       1.88119605       0.47785645      -0.73182203       1.17798536       0.31847404
H        0.04091859       0.43584650      -0.20221779       0.28611490      -1.36418845      -0.14619389
H       -0.30310715      -0.63299363       1.09660186       0.42374113      -0.62476396      -0.28050708
H       -1.04821586      -0.93407191      -0.51229959       0.78161441      -0.21900827       0.19565663
Cl       1.29774869      -1.62743070      -0.49381963      -0.03618525      -0.37238406       0.11956223
6
Properties=species:S:1:pos:R:3:forces:R:3 energy=-26135.527132578554 free_energy=-26135.527132578554 dipole="-0.6121275041840749 -1.2936774390613268 0.165541495523037" pbc="F F F"
C       -0.72641101      -0.69753399      -0.62226430      -0.45722919      -1.31410379      -0.35395802
Cl       0.68894681       1.94633116      -0.60624113       0.38920287       0.81783750      -0.03453766
H       -1.64446269      -0.11604824      -0.41585480       0.59225104      -0.26619858      -0.15159904
H       -0.92726561      -1.49660036      -1.40708111       0.30601554       1.15834244       0.77056664
H        0.13381263      -0.00958959      -0.80124885      -0.72975726      -0.60104546       0.02393897
Cl      -0.37350699      -1.66386863       0.89169092      -0.10048299       0.20516790      -0.25441089
6
Properties=species:S:1:pos:R:3:forces:R:3 energy=-26135.459446116507 free_energy=-26135.459446116507 dipole="-0.8098483479039668 -1.0689364418377698 -0.6105643512172969" pbc="F F F"
C       -0.11218967      -0.32950256      -0.39321649       1.21722894      -0.83511116       1.14958706
Cl       1.34604667       1.66940668       0.85344821       0.70520431       0.84945494       0.44108921
H        0.34787620      -0.12393293      -1.31794046       0.54844203       0.58001032      -0.97341494
H        0.65315348      -0.62427983       0.34117012      -0.35038981      -0.62552656      -0.54835950
H       -0.48319257       0.51619090       0.10545697      -1.11530981       1.09626039       0.00250068
Cl      -1.32275950      -1.55116878      -0.69544519      -1.00517566      -1.06508793      -0.07140250
6
Properties=species:S:1:pos:R:3:forces:R:3 energy=-26135.58611153836 free_energy=-26135.58611153836 dipole="-0.9149415062641734 0.12023957752045582 -1.2168656645848988" pbc="F F F"
C       -0.43326137      -0.72531901      -0.99635299      -0.50649354      -0.94593812       2.08050635
Cl       1.38578235      -0.54723674       1.64422404       0.28073362      -0.06181767       0.39270854
H       -1.23063149      -1.49436223      -0.88654891       0.26908204       0.61115365      -0.40019816
H        0.17956588      -0.80715952      -0.01827403      -0.74621827       0.83891000      -1.32951772
H        0.18839525      -0.94972657      -1.83027129       0.41410505       0.01167166      -0.83447182
Cl      -1.21445727       0.88543322      -1.22887367       0.28879109      -0.45397952       0.09097282
6
Properties=species:S:1:pos:R:3:forces:R:3 energy=-26135.678361872804 free_energy=-26135.678361872804 dipole="1.1180133888789323 -0.22714498526070595 1.2422049967480677" pbc="F F F"
C        0.15111478       0.21102735       1.01618737      -0.82987111       0.76271515       0.24382005
Cl      -1.77187325       0.46156984      -1.54166781      -0.23972958       0.07001601      -0.26030538
H       -0.15186775       0.37160256      -0.02031453       0.02726500      -0.34816992       0.00500767
H        0.05144317       1.18042091       1.52835902       0.87817165      -0.15231221      -0.02563236
H       -0.55721070      -0.41745574       1.53372607      -0.22053002      -0.51230954      -0.17250590
Cl       1.73937274      -0.56532989       1.11087708       0.38469407       0.18006051       0.20961591
6
Properties=species:S:1:pos:R:3:forces:R:3 energy=-26135.740196126142 free_energy=-26135.740196126142 dipole="1.1325931317439457 0.6806227243275095 0.9704820682350338" pbc="F F F"
C        0.22488764       0.99351537       0.53970429       0.47573034      -0.22764030       0.23099333
Cl      -1.83001695      -0.63414919      -1.38491332      -0.23447189      -0.11382062      -0.18595803
H        0.59468174       1.83469822      -0.03103619      -0.14912421       0.26080525      -0.11375657
H       -0.34486810       1.31071987       1.40920477       0.06743738       0.09125930       0.07729232
H       -0.38677757       0.32084842      -0.08610404       0.43183322      -0.09106834       0.15299328
Cl       1.75771608       0.19896979       1.16531419      -0.59140483       0.08046471      -0.16156433
6
Properties=species:S:1:pos:R:3:forces:R:3 energy=-26135.583985369416 free_energy=-26135.583985369416 dipole="-0.06052941716585583 -0.7969479023490833 1.3335253291711437" pbc="F F F"
C        0.69189333      -0.16371033       1.01819457       0.12647771      -1.19096009      -1.00721861
Cl       0.47030500       1.27130765      -1.77424834       0.03345823       0.27686595      -0.43500558
H        1.39244347      -0.90652679       0.56214579      -0.33315333       0.88474940       0.50323739
H        1.05430268       0.25165593       1.93733207       0.12785669      -0.11996630       0.75246557
H        0.52022765       0.64237746       0.27527857      -0.48720024      -0.68591012       0.20545660
Cl      -0.78909316      -1.21548486       1.35036993       0.53256093       0.83522116      -0.01893538
6
Properties=species:S:1:pos:R:3:forces:R:3 energy=-26135.666268809855 free_energy=-26135.666268809855 dipole="-1.361632940784163 0.6942161078600694 -0.5384903780960969" pbc="F F F"
C       -0.88194694       0.81682523       0.36749466       1.23317399       0.27540260      -1.73736113
Cl       1.86916389      -0.76959930       1.13942031       0.24054865      -0.12172394       0.08739076
H        0.11100545       0.28965517       0.39579771      -0.73203949       0.69475870       0.47553348
H       -1.58535218       0.40319908       1.02913410      -0.82349059      -0.63160895       0.96959979
H       -0.85075780       1.91678858       0.47975373       0.15833244      -0.58859667      -0.20854648
Cl      -1.50423385       0.41864280      -1.31809171      -0.07652499       0.37176827       0.41338357
6
Properties=species:S:1:pos:R:3:forces:R:3 energy=-26135.502409154044 free_energy=-26135.502409154044 dipole="-1.2228929893089806 -0.8361542778058375 -0.6828936047166448" pbc="F F F"
C       -0.54648171      -0.44047256       0.07597812       0.87998706       1.56198711      -0.21207620
Cl       1.76371561       1.18826408       1.18903760       0.35939121       0.25465141       0.28197059
H        0.07490095       0.45684285      -0.09543617      -0.24752305      -0.58631529      -0.89415129
H        0.10655287      -1.13399666       0.52454734       0.83574423      -1.46874207      -0.23823696
H       -1.11099341      -0.11057385       0.88654444      -1.79115068       0.42795454       1.22893414
Cl      -1.55212837      -1.01662669      -1.25219004      -0.03644877      -0.18953569      -0.16644027
6
Properties=species:S:1:pos:R:3:forces:R:3 energy=-26135.67215606348 free_energy=-26135.67215606348 dipole="-0.27374041398242244 0.275837289792003 -1.6420892962072422" pbc="F F F"
C       -0.12563344       0.62139153      -0.62164469       0.49044229      -1.23507642       0.77615822
Cl       0.38815286      -0.11529733       2.44268468       0.06538185      -0.03419233       0.29934825
H        0.30926317      -0.02423155       0.20296247      -0.59208407       0.52051709      -1.12023704
H       -1.06975854       1.00387520      -0.33055240      -1.01949123       0.10651620       0.45124019
H        0.48892624       1.44532787      -0.83026583       1.12733108       1.15776548      -0.04017961
Cl      -0.33786442      -0.16419223      -2.20482592      -0.07157992      -0.51553002      -0.36633001
6
Properties=species:S:1:pos:R:3:forces:R:3 energy=-26135.610778836824 free_energy=-26135.610778836824 dipole="0.447916492462698 1.4436094213344288 0.30914698696948273" pbc="F F F"
C       -0.27016093       1.11776295       0.91802413      -0.75770696       0.71575588       0.31805904
Cl      -0.84899676      -1.87992392      -0.10824688      -0.12849901      -0.37960134      -0.07819393
H       -0.61234140       0.12184011       0.69638638      -0.25276906      -0.62522875       0.11601695
H       -1.11914491       1.82527037       0.83596281       0.58880227      -0.13153034      -0.35623781
H        0.10372558       1.20282743       1.93864126       0.43331757      -0.05719848      -0.14874843
Cl       0.98681582       1.41164216      -0.30148926       0.11685518       0.47780304       0.14910418
6
Properties=species:S:1:pos:R:3:forces:R:3 energy=-26135.470833717576 free_energy=-26135.470833717576 dipole="0.9985204438893546 -1.0832591305226251 0.37714993577937256" pbc="F F F"
C        0.15183554      -0.91737417       0.90038021      -0.72803097      -1.76793402       0.20662270
Cl      -1.60025967       1.40783696      -0.24251816      -0.42292707       0.46934501      -0.19830250
H        0.39331364      -0.81449185       1.96946038       0.24730594      -0.74431380      -0.39368375
H       -0.53044195      -1.75450554       0.57912384       0.85737334       0.43368810       0.99161688
H       -0.42307916      -0.07290969       0.65883337      -0.43252572       1.54265722      -0.68062670
Cl       1.56474464      -1.02189554      -0.15374541       0.47880448       0.06655749       0.07437337
6
Properties=species:S:1:pos:R:3:forces:R:3 energy=-26135.597725966385 free_energy=-26135.597725966385 dipole="0.3792321962435746 -1.2920948758744653 -0.7250142358026697" pbc="F F F"
C        0.48699498      -0.78980996       0.12552245      -0.24038736       0.59935665       1.49474079
Cl      -0.42944630       1.89436640       1.34869756      -0.18858796       0.58601208       0.32855373
H        0.03603569       0.26523174       0.23007575       0.75306370      -1.43470882      -0.52477057
H        1.58552248      -0.78753732       0.24433667      -0.57764990       0.17739942       0.26953112
H       -0.00776440      -1.39776221       0.93246589       0.61418928       0.39699783      -0.81140131
Cl       0.21855770      -1.57217075      -1.43123024      -0.36062777      -0.32505716      -0.75665376
6
Properties=species:S:1:pos:R:3:forces:R:3 energy=-26135.560899341654 free_energy=-26135.560899341654 dipole="-0.4448692699465518 0.7452762883173123 1.230596374366195" pbc="F F F"
C       -1.20818777       0.35605165       0.74580208       0.20098608      -0.45673502       1.01717058
Cl       0.19426307      -1.08631137      -1.71128744       0.11067254      -0.22803020      -0.37975299
H       -1.82121656       1.23036266       0.79103575      -0.68683655       0.51499345      -0.62151127
H       -1.59149157      -0.31607359       1.52877307       0.05829788      -0.18475515      -0.55575292
H       -0.99316552      -0.11977562      -0.23161479      -0.29181603       0.21594707       0.35360194
Cl       0.34036779       0.94308412       1.39922176       0.60869607       0.13857984       0.18624465
6
Properties=species:S:1:pos:R:3:forces:R:3 energy=-26135.588695191647 free_energy=-26135.588695191647 dipole="1.1856991329934938 -0.47111646117804995 0.7812818846149587" pbc="F F F"
C        0.82138382      -0.73266786      -0.10367776      -0.42188725      -0.90690960       0.13166740
Cl      -1.67373274       0.48036379      -1.46858201      -0.54885250       0.24346610      -0.35519257
H       -0.25177610      -0.43618578      -0.35204675       1.20361861      -0.50871367       0.57046720
H        1.07273777      -1.81460042      -0.14387739      -0.60254579       0.48835733       0.23540631
H        1.44885714      -0.29480742      -0.85458744       0.44565078       0.71985120      -0.18444500
Cl       1.33089442      -0.15974229       1.54211063      -0.07598385      -0.03605136      -0.39790336
6
Properties=species:S:1:pos:R:3:forces:R:3 energy=-26135.6455823309 free_energy=-26135.6455823309 dipole="0.3405124907795914 1.3738137841800842 0.7704525703983621" pbc="F F F"
C        0.00602390       0.37982057       0.92974356      -0.22367038       0.39656301       0.03646517
Cl      -0.58101166      -2.19355884      -0.85388845      -0.07598217      -0.34164427      -0.16211739
H        0.87573987      -0.06699408       1.42906445      -0.67819391       0.19238682       0.52920501
H       -0.16729305      -0.27830450       0.06912543      -0.08911958       0.51355479      -0.25914931
H       -0.96712380       0.51117042       1.48270354       1.38561362      -0.23580915      -0.17702542
Cl       0.58632600       2.06015338       0.45411721      -0.31864757      -0.52505120       0.03262192
6
Properties=species:S:1:pos:R:3:forces:R:3 energy=-26135.54647820694 free_energy=-26135.54647820694 dipole="0.610126101997647 1.41425212228379 0.6100721740772956" pbc="F F F"
C        0.44329787       0.42995484       0.96288165       0.39819053       1.14915857       1.48759033
Cl      -0.74188085      -2.13363781      -0.54397677      -0.11597309      -0.33172589      -0.14575818
H       -0.15116017      -0.26771158       0.45179354      -1.46921941      -0.74987792      -0.57468600
H        0.26503784       0.56719467       2.04579920      -0.32520026       0.05678379      -0.64715037
H        1.41278966       0.08054363       0.84329996       1.94490442      -1.02523894       0.10032869
Cl       0.54827489       1.97715672       0.12274147      -0.43270219       0.90090039      -0.22032447
6
Properties=species:S:1:pos:R:3:forces:R:3 energy=-26135.67202019986 free_energy=-26135.67202019986 dipole="1.3255256816067091 0.2336184211902548 0.9975777840109497" pbc="F F F"
C        0.52002570       0.73079069       0.45948446      -0.47624638       0.68674775       1.88920338
Cl      -1.95541808      -0.00697131      -1.38903676      -0.30552832      -0.03962621      -0.21847878
H       -0.20188557       0.93980323       1.25740113      -0.03265352      -0.32928239      -0.09245374
H       -0.02702185       0.25901228      -0.32356094      -0.08937587      -0.43693812      -0.84979887
H        0.91426436       1.71007394       0.24562556       0.64722082       0.11596485      -0.58065342
Cl       1.75973773      -0.32334427       1.19981900       0.25658326       0.00313412      -0.14781856
6
Properties=species:S:1:pos:R:3:forces:R:3 energy=-26135.628334661873 free_energy=-26135.628334661873 dipole="1.1594878025140238 -0.5173012960103178 0.9166684819117977" pbc="F F F"
C        0.76228569      -0.66798537      -0.00911611      -0.46119031      -0.20147447       0.46678760
Cl      -1.64874041       0.54585147      -1.66746449      -0.34579608       0.13727128      -0.29502760
H        1.57334830      -0.46724261      -0.67351832       0.67406022       0.55594557      -0.34671472
H       -0.18572161      -0.17308714      -0.39128768       0.89666420      -0.20156777       0.91249712
H        0.67492006      -1.74459055       0.00718520      -0.35768056      -0.34927691       0.09460501
Cl       1.33181910      -0.25171404       1.70062600      -0.40605747       0.05910230      -0.83214740
6
Properties=species:S:1:pos:R:3:forces:R:3 energy=-26135.573984716906 free_energy=-26135.573984716906 dipole="1.35255737011521 -0.8111989256226664 -0.4003383641981166" pbc="F F F"
C        0.46120634      -1.09569328       0.09949948      -1.10084052       1.05867076      -0.79793581
Cl      -2.04719132       0.79929624       0.71688056      -0.23556435       0.11350108       0.08590546
H       -0.38424027      -1.32410656      -0.61183421       1.30455510      -0.02740075       0.40362855
H       -0.05965243      -0.37068118       0.77956332       0.94245929      -0.49247197      -0.31707092
H        0.94748346      -1.94592828       0.52718522      -0.28486615      -0.67497004       0.54115891
Cl       1.87660828      -0.32453704      -0.77035198      -0.62574337       0.02267092       0.08431380
6
Properties=species:S:1:pos:R:3:forces:R:3 energy=-26135.550879362967 free_energy=-26135.550879362967 dipole="0.7624046375301722 1.2202200279041828 0.6096458292281746" pbc="F F F"
C       -0.05253863       1.46262636       0.07980981      -0.46096704       0.23356741      -0.58100676
Cl      -1.27344973      -1.34730359      -0.94672780      -0.14797615      -0.25118112      -0.17047365
H       -0.35800998       0.65565820      -0.63333932      -0.47997615       0.73074890       0.72691796
H        0.18852350       2.40097373      -0.45485958       0.58378877      -0.47847957       0.23623187
H       -0.79114332       1.76300044       0.84218621       0.04632866      -0.65239282      -0.40404970
Cl       1.31856557       0.71470008       0.92668225       0.45880193       0.41773720       0.19238029
6
Properties=species:S:1:pos:R:3:forces:R:3 energy=-26135.59487495521 free_energy=-26135.59487495521 dipole="0.6793938631881887 -0.2996707778219434 1.3209256017955935" pbc="F F F"
C        0.14704117      -0.85953707       0.68058317      -1.22154594       1.54919359       1.55052668
Cl      -1.13790708       0.05348415      -1.99451609      -0.33327810       0.14450116      -0.60326598
H       -0.65612955      -1.24154939       1.32991925       0.52520903      -0.24657165      -0.11094483
H        0.89039583      -1.54863742       0.42607653       0.69393680      -1.33356319      -0.68033543
H       -0.35150961      -0.33878014      -0.15123367       0.63300469      -0.05604069      -0.00652948
Cl       1.09142104       0.32671044       1.71829368      -0.29732647      -0.05751922      -0.14945095
6
Properties=species:S:1:pos:R:3:forces:R:3 energy=-26135.539124897685 free_energy=-26135.539124897685 dipole="1.2915439198466234 -0.46721384380976133 0.7836287151632404" pbc="F F F"
C        0.27749626      -0.56079529       0.84606826      -2.95851957       1.46994516       0.26318649
Cl      -2.02598804       0.54100630      -0.92918389      -0.51292090       0.20513684      -0.32383968
H       -0.13634111       0.25735179       1.50475961       0.63333019      -0.86237340      -0.47145389
H        0.05377518      -1.50851084       1.29214453       0.27171822      -0.69669708       0.36737203
H       -0.36593869      -0.43456810      -0.06239123       0.87260705      -0.17074553       0.41268577
Cl       1.94472105      -0.30306765       0.56476880       1.69378501       0.05473401      -0.24795072
6
Properties=species:S:1:pos:R:3:forces:R:3 energy=-26135.474019612746 free_energy=-26135.474019612746 dipole="1.0818230536420146 -1.0402710298188673 0.02857704365815605" pbc="F F F"
C        0.44319033      -0.67188660      -0.64479199       1.71817484      -0.53508672      -1.33317946
Cl      -1.69139891       1.49287387      -0.38070132      -0.64646176       0.59718343       0.01445741
H       -0.09534460      -1.58060880      -0.96641691       0.44294604       0.42665039      -0.33820148
H        1.25429830      -0.28441863      -1.37790295      -2.09539947      -0.53663457       0.67800655
H       -0.30207291       0.05962290      -0.32591652       0.41531420       0.28141079       0.09818435
Cl       1.51687437      -1.21389283       0.67509328       0.16542614      -0.23352332       0.88073263
6
Properties=species:S:1:pos:R:3:forces:R:3 energy=-26135.275834059885 free_energy=-26135.275834059885 dipole="0.503951961598789 -0.9491100564668665 -0.9500715868046001" pbc="F F F"
C        1.19139466      -1.07985633      -0.32547777      -0.73534112       3.31449060       1.81098018
Cl      -0.35037945       1.10878212       1.42721486      -0.08984050       0.33502123       0.48858883
H        1.04111328      -0.42348464       0.60048762       0.50437428      -0.54962279      -1.14752655
H        2.09056771      -0.86262492      -0.83727332       1.02990886      -0.01954660      -0.50936355
H        1.05879872      -2.03637784      -0.00549702       0.03368126      -3.04105578       0.55785629
Cl      -0.17243704      -0.64843737      -1.31004886      -0.74278278      -0.03928666      -1.20053520
6
Properties=species:S:1:pos:R:3:forces:R:3 energy=-26135.5003199275 free_energy=-26135.5003199275 dipole="-1.3497815922242857 -0.5972963349385381 -0.5386901594267556" pbc="F F F"
C       -0.45269240      -0.41943812      -0.96459961       0.96405364      -1.17191069       2.19585787
Cl       2.08904958       0.80117031       0.43742639       0.51752922       0.25449970       0.21898687
H       -0.17829129      -1.44690408      -1.13015501       0.78911128      -0.23818456      -0.14511805
H        0.29199375       0.15691955      -0.38623305      -0.18429801      -0.58655248       0.00814180
H       -0.55486520       0.04868069      -1.86706873      -1.08861128       1.33436137      -2.44800781
Cl      -1.92312629      -0.62376254      -0.01439873      -0.99778486       0.40778667       0.17013933
6
Properties=species:S:1:pos:R:3:forces:R:3 energy=-26135.611552118975 free_energy=-26135.611552118975 dipole="-1.4349468221481314 -0.5381356711410331 -0.4819530341184439" pbc="F F F"
C       -0.37212239      -0.50477055      -0.60906606      -1.16763301       1.80071089       0.62671511
Cl       2.25937220       0.65569512       0.50081250       0.50095071       0.15026008       0.13315842
H       -0.00666173      -1.46217931      -0.56874739       0.48576637      -2.57427650      -0.28038285
H        0.19809405       0.03091646       0.12200157      -0.00880360       0.60525908       0.49056271
H       -0.26943251      -0.01965877      -1.54178254       0.32422773       0.26416422      -1.08287220
Cl      -2.13107357      -0.44341506      -0.23790900      -0.13450820      -0.24611777       0.11281881
6
Properties=species:S:1:pos:R:3:forces:R:3 energy=-26135.513093202553 free_energy=-26135.513093202553 dipole="-1.2023438507491262 -0.7986686331764459 0.06314977094744255" pbc="F F F"
C       -0.44882909      -0.90728568      -0.51794048      -0.25801184       0.79216469      -1.64391497
Cl       1.91133696       0.96534839      -0.35355608       0.93249322       0.67261255       0.02706732
H        0.30910749      -0.10998358      -0.46888112      -0.32935382      -0.27073027       0.03641300
H       -0.85696460      -0.98419853      -1.53406073      -0.08175785       0.16856740       0.16154016
H       -0.01375313      -1.83265468      -0.29901744       0.70580584      -1.48166264       0.64019340
Cl      -1.74329777      -0.57472329       0.59449707      -0.96917555       0.11904828       0.77870108
6
Properties=species:S:1:pos:R:3:forces:R:3 energy=-26135.507760753986 free_energy=-26135.507760753986 dipole="-0.6252949392212445 -0.7145429385445887 1.1229227637736099" pbc="F F F"
C        0.03538027      -0.09711267       1.47932670       0.99401692      -0.32657027      -2.05760684
Cl       1.09460856       1.17272002      -1.24798820       0.18965791       0.24121857      -0.31043364
H       -0.52120567       0.28397446       2.28882196      -0.32689180       0.69803265       1.14672062
H        0.40724487       0.66004290       0.68454002      -0.36873507      -1.05079811       1.31907334
H        0.80944372      -0.82067716       1.77800137       0.00324093       0.71363227       0.15576023
Cl      -1.12637158      -1.14332388       0.61166755      -0.49128890      -0.27551511      -0.25351371
6
Properties=species:S:1:pos:R:3:forces:R:3 energy=-26135.483948490273 free_energy=-26135.483948490273 dipole="1.1444615827820912 -0.44398354265669987 0.921801988226478" pbc="F F F"
C        0.71089484      -0.77656471       0.07930017      -1.27765652      -2.12890307      -0.94787439
Cl      -1.61348027       0.37484549      -1.50453348      -0.65687056       0.28805657      -0.48665835
H        0.16924889      -0.07403688      -0.59926212       0.31568407      -0.54587773       0.73640965
H        0.01535760      -1.58036809       0.47401642       0.41547060       1.05812114      -0.83636640
H        1.49456541      -1.32340383      -0.45556914       0.21552599       0.28333150       0.09265228
Cl       1.32487200      -0.02706129       1.49418051       0.98784642       1.04527159       1.44183721
6
Properties=species:S:1:pos:R:3:forces:R:3 energy=-26135.521540514506 free_energy=-26135.521540514506 dipole="1.1006171966209455 -0.2733213701912755 1.1301085621887033" pbc="F F F"
C        0.27599156       0.30297750       1.34158751      -1.06435715      -1.99385855      -1.02219834
Cl      -1.72899658       0.59521574      -1.25811787      -0.23697993       0.05510608      -0.16014041
H       -0.25421056      -0.34206018       2.04634183       0.60459344       0.45499864       0.73821517
H       -0.51059380       0.40634752       0.58019981       0.61665228       0.10532387      -0.62844883
H        0.59253852       1.27410261       1.62579856       0.65938925       0.57152408       0.71105395
Cl       1.64038471      -0.73592546       0.68265478      -0.57929790       0.80690589       0.36151846
6
Properties=species:S:1:pos:R:3:forces:R:3 energy=-26135.4934691581 free_energy=-26135.4934691581 dipole="1.177685609873421 -0.5908227667146866 1.072353852917452" pbc="F F F"
C        0.46787688      -0.41412059       0.20464327      -1.46873150       0.42856932      -1.78141721
Cl      -1.64288427       0.78760311      -1.60699880      -0.24904725       0.12951101      -0.24658857
H        0.54773384       0.58526751      -0.10810427       0.47282959       1.39394827      -0.64160496
H       -0.58589784      -0.39891381       0.45437618      -0.15040605      -0.93794895      -0.01062979
H        0.76021425      -1.02242887      -0.65213817      -0.35864606      -0.29114753       0.31680524
Cl       1.46382938      -0.62351943       1.54635967       1.75400127      -0.72293211       2.36343530
6
Properties=species:S:1:pos:R:3:forces:R:3 energy=-26135.50182271602 free_energy=-26135.50182271602 dipole="1.001081248301082 -1.1770203261675913 0.4272039884311071" pbc="F F F"
C        0.41816945      -1.33696538      -0.41326817       2.12715882      -2.28904526      -0.20202190
Cl      -1.45498683       1.30911303      -0.87753364      -0.17867313       0.13975059      -0.09714365
H       -0.00637542      -2.32437340      -0.07243476       0.16347370       1.05496544      -0.50234735
H        1.25388870      -1.59693665      -1.21319168      -1.83059829       0.85111340       1.54143574
H       -0.32585689      -0.60498152      -0.70603763      -0.08264209       0.34321235      -0.18088111
Cl       1.28709788      -0.72742635       1.07418699      -0.19871901      -0.09999651      -0.55904174
6
Properties=species:S:1:pos:R:3:forces:R:3 energy=-26135.621325650696 free_energy=-26135.621325650696 dipole="1.3289232003858689 -0.04959399127664248 0.7459012296693174" pbc="F F F"
C        0.65956583       0.67888274       0.85468322       0.78553164       0.20525034       0.10357874
Cl      -1.95940476       0.40846557      -0.84005581      -0.57730046      -0.02835498      -0.32527482
H        1.22486782       1.61490650       0.79575819      -0.01480872      -0.23306877      -0.41405576
H        0.34774901       0.56933099       1.86244852      -0.31390047      -0.24294211       1.09406325
H       -0.20374230       0.58975306       0.21693205      -0.32635292       0.39241180      -0.47235705
Cl       1.69701066      -0.71735818       0.46872323       0.44683093      -0.09329628       0.01404564
6
Properties=species:S:1:pos:R:3:forces:R:3 energy=-26135.560015650582 free_energy=-26135.560015650582 dipole="1.1981106796611956 -0.626318948453875 0.9375951259684786" pbc="F F F"
C        1.05694270      -0.21865751      -0.06854057       1.04966814      -0.98820349      -1.19929158
Cl      -1.46257965       0.89948815      -1.57611242      -0.28946287       0.16880697      -0.27370526
H        0.72102211      -1.04749519      -0.71594778       0.14356512       0.24736202       0.49417479
H        2.08282966       0.04954985      -0.38073318      -0.10735615      -0.36427816       0.64014445
H        0.43674201       0.60606754      -0.38268795      -0.78878508       0.33674342       0.96099951
Cl       1.01232698      -0.81426084       1.64140000      -0.00762916       0.59956925      -0.62232191
6
Properties=species:S:1:pos:R:3:forces:R:3 energy=-26135.6095232398 free_energy=-26135.6095232398 dipole="1.1836498259817252 -0.23935067881843491 1.226859178323106" pbc="F F F"
C        0.20463836       0.13363598       0.80581361      -0.06081578       1.61818342      -0.34759697
Cl      -1.80804357       0.46378957      -1.59189605      -0.22721624       0.06475705      -0.21014247
H        0.14864401       0.46511487      -0.23671412       0.16729553      -0.56373669       0.09089293
H        0.20074691       1.06209189       1.39372543      -1.00145230      -0.44158192       0.11059112
H       -0.54006534      -0.62174874       0.98365177      -0.53084191       0.22456555       0.23289644
Cl       1.74413069      -0.53481365       1.25800562       1.65303070      -0.90218740       0.12335895
6
Properties=species:S:1:pos:R:3:forces:R:3 energy=-26135.57180513811 free_energy=-26135.57180513811 dipole="-0.6570210323202895 0.0411238993510672 -1.3757682795693902" pbc="F F F"
C        0.28740950       0.36218075      -1.22032211      -0.29028716      -0.83875433      -2.92841098
Cl       1.23423585       0.12221167       1.72294691       0.25388204      -0.03258464       0.62386255
H        0.17945993       1.41319145      -1.38998035       0.17258961       0.68975805       0.19850944
H        0.81039039      -0.09050085      -2.11701898      -0.55104922       0.41284296       0.95317912
H        0.74238032       0.08891228      -0.31207311       0.64618491      -0.07215618       1.24853428
Cl      -1.38086954      -0.28506213      -1.20089010      -0.23132018      -0.15910586      -0.09567442
6
Properties=species:S:1:pos:R:3:forces:R:3 energy=-26135.48281691333 free_energy=-26135.48281691333 dipole="-1.4690246528557316 -0.44111083431776227 -0.1834957686508288" pbc="F F F"
C       -0.62466860      -0.86414297      -0.62105427      -0.67371272      -0.74229039      -2.24274390
Cl       2.09662913       0.31734570       0.00914571       0.63255332       0.23822029       0.10088808
H       -0.99983704      -1.88848722      -0.84115385      -0.07962873       0.59725581       0.36594204
H        0.21821911      -0.88119149       0.01158243       1.05435578      -0.05952078       0.46239341
H       -0.31298888      -0.42181419      -1.62958357      -0.66138473      -0.09776023       1.68394495
Cl      -1.85385739       0.06618733       0.27120157      -0.27218293       0.06409530      -0.37042458
6
Properties=species:S:1:pos:R:3:forces:R:3 energy=-26135.570767078676 free_energy=-26135.570767078676 dipole="0.3994439478184671 -1.3510445403136249 -0.7403473412743248" pbc="F F F"
C        0.46920259      -0.78013105       0.12962444       0.70802793      -0.70728810      -0.38135531
Cl      -0.43131627       1.89452557       1.33657992      -0.16998465       0.59201854       0.35318645
H        0.12056693       0.21248857       0.22555472      -0.62926960       1.12785337      -0.51030092
H        1.52580264      -0.79343865       0.22317219       1.00702440       0.03683622       0.65911768
H       -0.01935971      -1.36987724       0.85289082      -0.40318469      -0.75361349       1.04104017
Cl       0.22608021      -1.57473465      -1.41750939      -0.51261339      -0.29580654      -1.16168808
6
Properties=species:S:1:pos:R:3:forces:R:3 energy=-26135.46709479809 free_energy=-26135.46709479809 dipole="-0.9401038731012942 1.006138391698392 0.554620692739707" pbc="F F F"
C       -1.06274968       0.02239146       0.62966817       0.91266756      -1.93056428       0.06370469
Cl       1.10065437      -1.66451408      -0.64316963       0.49788908      -0.42202990      -0.26999645
H       -0.77217087      -0.52587337      -0.29597312      -0.84924668       0.35622577       0.47693343
H       -2.10947850      -0.02680793       0.94526708       0.22159798      -0.22883661      -0.03505158
H       -0.32060246      -0.47418140       1.32071372      -1.07068556       0.83709295      -0.25701984
Cl      -0.64952443       1.68612575       0.37381244       0.28777763       1.38811206       0.02142975
6
Properties=species:S:1:pos:R:3:forces:R:3 energy=-26135.43818475797 free_energy=-26135.43818475797 dipole="0.30290575294157485 1.3457880902576145 -0.04927477094531915" pbc="F F F"
C       -0.16242303       1.01505302      -0.79352640      -0.05420275      -1.13474895      -0.49974607
Cl      -0.66188350      -1.96887505      -0.25590479      -0.21107534      -0.88538905       0.14463381
H       -0.34388881      -0.11912352      -0.69385130       0.80414548       1.35832100      -0.54242424
H        0.25702909       1.41639519      -1.73648014       0.03931226      -0.40436310       0.56048053
H       -1.11552099       1.42932973      -0.62493565      -1.38920915       0.75530882      -0.14240863
Cl       0.75110389       1.54743031       0.61163835       0.81102950       0.31087129       0.47946460
6
Properties=species:S:1:pos:R:3:forces:R:3 energy=-26135.65028878629 free_energy=-26135.65028878629 dipole="0.5273839618207201 0.7985941043872873 1.3155633162974703" pbc="F F F"
C        0.31333387       0.93418067       0.30034680       0.83499883      -0.93772769      -0.03816966
Cl      -0.73237187      -0.88633612      -2.14844468      -0.06177118      -0.15806243      -0.26812310
H        1.30483291       1.11032278      -0.12229314      -0.01281166       0.47026565       0.19655101
H       -0.27588555       1.83887219       0.38650046      -0.24616717      -0.07678471      -0.55037914
H       -0.05017292       0.07417566      -0.33811802      -0.47335699       0.86929900       0.95841291
Cl       0.59837870       0.48385370       2.04878422      -0.04089182      -0.16698982      -0.29829202
6
Properties=species:S:1:pos:R:3:forces:R:3 energy=-26135.469814543332 free_energy=-26135.469814543332 dipole="0.8989716296839708 -0.14099533279299772 1.1062470611047677" pbc="F F F"
C        0.11212693       0.32949525       1.41210064      -2.48753070       0.64514974       1.48282477
Cl      -1.43166172       0.36050361      -1.29099785      -0.42064411       0.04320720      -0.56105631
H       -0.72232144       0.44121397       0.65895915       0.98893214       0.02060548       0.51080094
H        0.44384304       1.31015403       1.78505688       0.02994351      -0.24327406      -0.24437803
H       -0.32602241      -0.22494001       2.29544561       0.75534363       0.27681950      -0.81894231
Cl       1.41086004      -0.51554471       0.67779283       1.13395554      -0.74250787      -0.36924907
6
Properties=species:S:1:pos:R:3:forces:R:3 energy=-26135.45884267153 free_energy=-26135.45884267153 dipole="-0.6614506286970093 -0.6967653629791764 1.1425192251304634" pbc="F F F"
C        0.00541626      -0.05331615       1.46088396       0.25406363      -2.06172566       0.89631156
Cl       1.08587663       1.12160414      -1.23224169       0.25309007       0.26855266      -0.44541970
H       -0.62827588       0.44627962       2.16023780       0.13007771       0.37103489       0.99244399
H        0.40009492       0.58671101       0.73156907       0.82370680       1.08460670      -1.00052355
H        0.78244434      -0.76084222       1.85470388      -0.62168202       1.11814566       0.15793703
Cl      -1.10347190      -1.11127819       0.60230769      -0.83925620      -0.78061426      -0.60074933
6
Properties=species:S:1:pos:R:3:forces:R:3 energy=-26135.42579416301 free_energy=-26135.42579416301 dipole="-1.1409893277763061 0.23475995380204778 -0.9578310747005014" pbc="F F F"
C       -0.21688242      -0.16189575      -1.00126521       0.29553458      -2.21195470       0.75685142
Cl       1.81482828      -0.47950836       1.16209797       0.70484616      -0.18006600       0.68250057
H        0.48342042       0.17330783      -0.27871069       0.57436118       0.83182766       0.50088052
H        0.19062150      -0.07593859      -1.98020259      -0.13359222       0.17062734      -1.04379243
H       -0.31768411      -1.21595727      -0.67044372       0.08983700       0.41448185      -0.68928033
Cl      -1.75147804       0.56616750      -0.73955952      -1.53098670       0.97508385      -0.20715975
6
Properties=species:S:1:pos:R:3:forces:R:3 energy=-26135.60906960447 free_energy=-26135.60906960447 dipole="1.3697931576479534 -0.35961253840369595 0.8005737827908672" pbc="F F F"
C        1.32595981      -0.43102089      -0.22936937      -1.07126226      -1.51870837       1.30102976
Cl      -1.63601373       0.38287121      -1.45064090      -0.19709332       0.03056227      -0.14814816
H        1.52282784      -1.50071949      -0.40078793       0.54563362       0.47732756       0.18935779
H        2.02434226       0.25737558      -0.62532667       0.93486519       0.55927537      -0.12699941
H        0.34757969      -0.26996205      -0.62905970      -0.75062597       0.51473740      -0.49219623
Cl       1.07601342      -0.19380480       1.57541865       0.53848274      -0.06319422      -0.72304374
6
Properties=species:S:1:pos:R:3:forces:R:3 energy=-26135.650272082014 free_energy=-26135.650272082014 dipole="-1.3395844606206435 0.6742372397670651 -0.4389959786540983" pbc="F F F"
C       -0.92187084       0.60909021       0.49036294      -0.87748982      -1.28012591      -1.11513678
Cl       1.84467956      -0.83783387       1.02967618       0.45228541      -0.20720778       0.13203485
H       -0.02217687       0.00253733       0.49419406      -0.00074883      -0.38632265       0.39363172
H       -1.76241329       0.22670884       1.08789132       0.43640398       0.12278604      -0.15894437
H       -0.64352589       1.58994240       0.73769339       0.08465729       1.50924840       0.29766543
Cl      -1.46329362       0.57973727      -1.26178016      -0.09510803       0.24162190       0.45074915
6
Properties=species:S:1:pos:R:3:forces:R:3 energy=-26135.604949194436 free_energy=-26135.604949194436 dipole="0.9768059158215233 1.3067379104505707 -0.3747637058710556" pbc="F F F"
C        0.44842575       0.81330911       0.44172650       2.61780457      -0.75074409       0.76639149
Cl      -1.40046245      -1.77885481       0.83445905      -0.20444905      -0.24394700       0.09139193
H       -0.38116124       1.35600781       0.80753316      -0.52247740       1.34727834       0.24098376
H        1.33203888       0.72895115       1.15780902      -1.54214403       0.20423811      -0.57288870
H        0.03286226      -0.15723283       0.27130978       0.03560774      -0.85392715      -0.39759886
Cl       1.22055690       1.44847953      -1.04772061      -0.38434182       0.29710180      -0.12827961
6
Properties=species:S:1:pos:R:3:forces:R:3 energy=-26135.476402066033 free_energy=-26135.476402066033 dipole="-1.1302855354524095 -0.9742230177320775 -0.02949948473369973" pbc="F F F"
C       -1.13798209      -0.07000793      -0.44979735       0.79381833       0.68343754      -0.17099602
Cl       1.34578154       1.59958580      -0.15497799       0.72075501       0.54422856       0.08054630
H       -0.15055246       0.27392969      -0.79422274      -0.56085969       0.11144738       0.25685098
H       -1.57837064       0.66086797       0.20670411       0.25737664       0.16816809       0.68968980
H       -1.81687569      -0.13618108      -1.25316965      -0.90178863      -0.79789030      -1.18759565
Cl      -0.85939316      -1.59857424       0.35971507      -0.30930166      -0.70939128       0.33150459
6
Properties=species:S:1:pos:R:3:forces:R:3 energy=-26135.494622718357 free_energy=-26135.494622718357 dipole="-1.027755647998909 -0.13597866668970118 1.0616989592136976" pbc="F F F"
C       -0.03941466      -0.20184825       1.05938258       0.80505052       0.04268951      -1.08102224
Cl       1.78430566       0.14209904      -1.33048173       0.61307218       0.09689223      -0.70825698
H        0.38732860       0.69113079       1.54595575      -0.37667245      -0.10945230      -0.57410250
H        0.31191345      -0.33144554      -0.01788795       0.08220649       0.39181783       1.72608638
H        0.27371465      -1.04340565       1.67098894      -0.49423063      -0.39715916       0.06020433
Cl      -1.79861683      -0.05426859       0.88058346      -0.62942612      -0.02478811       0.57709101
6
Properties=species:S:1:pos:R:3:forces:R:3 energy=-26135.47297137843 free_energy=-26135.47297137843 dipole="0.35767760987092745 1.3873325394381697 0.7932518524800015" pbc="F F F"
C       -0.03105405       0.44311125       0.96136711       0.73503873      -1.65047737       1.69668513
Cl      -0.56781551      -2.08203496      -0.83047070      -0.10610888      -0.47163826      -0.27309374
H        0.80220363      -0.05634310       1.44066926       0.42171355      -0.45492796      -0.20265120
H       -0.42801199      -0.25532706       0.24195574      -0.32855855       0.14276900      -0.60844566
H       -0.64535994       0.62380030       1.80712027      -1.30150382       0.33301476       0.51652671
Cl       0.58604760       1.92302689       0.40551601       0.57941897       2.10125983      -1.12902124
6
Properties=species:S:1:pos:R:3:forces:R:3 energy=-26135.647718687018 free_energy=-26135.647718687018 dipole="1.355205831673513 -0.36009319270993717 0.98933794291064" pbc="F F F"
C        0.70035797      -0.28029970       0.06187275      -0.99059653       0.18991709      -1.69003328
Cl      -1.88113233       0.47489268      -1.60905746      -0.15010639       0.01779877      -0.14573353
H        1.23106376      -0.88926059      -0.69713090      -0.15248553       0.19103520       0.62345141
H        0.67231860       0.75365043      -0.33095738       0.26561891      -0.41689214       0.55314261
H       -0.40227710      -0.56346854       0.01483558       1.44146708       0.10154680       0.86624111
Cl       1.60115733      -0.36004498       1.61690528      -0.41389755      -0.08340571      -0.20706833
6
Properties=species:S:1:pos:R:3:forces:R:3 energy=-26135.603510202927 free_energy=-26135.603510202927 dipole="1.3418844272351578 -0.6584942479158917 0.5313379416582433" pbc="F F F"
C        0.89610609      -0.86686361      -0.33626892      -0.79563784      -0.14510371      -0.29057193
Cl      -1.81494674       0.69021516      -1.04762596      -0.39051816       0.20645548      -0.11783342
H        0.90704244      -1.93891301      -0.32317832      -0.39723692      -0.71226923       0.13378550
H        1.56331426      -0.59296400      -1.12807867       0.43498313       0.68339416      -0.35534252
H       -0.10127687      -0.40608651      -0.43350640       0.22337418      -0.44118912      -0.59092862
Cl       1.44396894      -0.31296929       1.21515113       0.92503562       0.40871242       1.22089099
6
Properties=species:S:1:pos:R:3:forces:R:3 energy=-26135.69286050413 free_energy=-26135.69286050413 dipole="-0.06797445208792371 -1.7134321072933147 -0.42653964454400334" pbc="F F F"
C       -0.82867525      -0.95627480      -0.46243576      -1.23818648       1.58550019       0.56403195
Cl      -0.25023344       2.31409805       0.47729862      -0.04836995       0.06816644       0.00990442
H       -0.66300105       0.10542371      -0.13754965       0.41751805      -0.72976145      -0.23334398
H       -1.66980197      -1.29465282       0.17562715       0.64886484      -0.40417927      -0.30499086
H       -1.16510606      -0.91820729      -1.49937919       0.23296864      -0.32680720      -0.04917361
Cl       0.63046224      -1.93017387      -0.27906708      -0.01279510      -0.19291872       0.01357208
6
Properties=species:S:1:pos:R:3:forces:R:3 energy=-26135.677407543535 free_energy=-26135.677407543535 dipole="1.316987755512866 -0.5384710160311396 0.8618424446445644" pbc="F F F"
C        1.07419356      -0.89173786      -0.05865981      -0.24336437       0.19996707      -1.41644111
Cl      -1.65613481       0.48567123      -1.42236655      -0.14023666       0.05947173      -0.11000862
H        0.19134508      -0.42662932      -0.53885065       0.20279260      -0.50222109      -0.10805831
H        0.96849745      -1.97251424       0.05287608       0.01288405       0.12216779       0.09427757
H        1.97007440      -0.63413142      -0.63536810      -0.12446347      -0.25588359       0.04057469
Cl       1.20318431      -0.09728746       1.47412611       0.29238784       0.37649808       1.49965578
6
Properties=species:S:1:pos:R:3:forces:R:3 energy=-26135.577474785332 free_energy=-26135.577474785332 dipole="0.03770362542267587 -0.08530839775980924 -1.7529474989572411" pbc="F F F"
C       -0.15621228      -0.95094679      -1.19990039       1.55870295      -1.08067073       1.53686650
Cl      -0.13134915      -0.26948498       2.25134427      -0.02714419      -0.05716909      -0.01705496
H       -1.02348985      -1.38648749      -1.68412167      -0.18579954       0.29128262      -0.21267636
H       -0.30520312      -0.79966038      -0.09305846       0.00417018      -0.51147383      -0.82793519
H        0.74476147      -1.67253307      -1.34680874      -1.38965077       1.51565510       0.08590244
Cl       0.20088000       0.70139957      -1.75597095       0.03972136      -0.15762408      -0.56510242
6
Properties=species:S:1:pos:R:3:forces:R:3 energy=-26135.647629530573 free_energy=-26135.647629530573 dipole="0.754207224271074 -0.33687694279934777 1.4543423819061714" pbc="F F F"
C        0.25082620      -1.03419339       0.89402797      -1.44868145      -1.21155586      -1.23307155
Cl      -1.12213798       0.10990905      -1.98080561      -0.07935135       0.00413694      -0.11087936
H       -0.55234683      -1.43854250       1.56358299       0.73970787       0.50222940      -0.31688408
H        0.98345816      -1.86151559       0.71147327      -0.45810407       0.87505292       0.06601394
H       -0.25754408      -0.67431851      -0.07413214       0.82024105      -0.60260909       1.07061089
Cl       1.03221897       0.35350050       1.61531332       0.42618796       0.43274570       0.52421016
6
Properties=species:S:1:pos:R:3:forces:R:3 energy=-26135.55611390769 free_energy=-26135.55611390769 dipole="1.1059212048912237 -1.2148291747743474 0.5899006436746465" pbc="F F F"
C        0.38874204      -1.15837259      -0.20765636      -2.51029916       1.44258123      -0.51937142
Cl      -1.60572981       1.46739996      -1.04936809      -0.05373011       0.07599757      -0.08305730
H       -0.50284804      -1.81119963       0.09006212       1.51848837       0.68677418      -0.72729794
H        0.93564685      -1.40196181      -1.09952233       0.34489284      -1.08719310      -0.17491815
H       -0.03144822      -0.14009434      -0.52260080       0.16782842      -1.07676345       0.98225919
Cl       1.46260592      -0.97957781       1.16328849       0.53281964      -0.04139643       0.52238562
6
Properties=species:S:1:pos:R:3:forces:R:3 energy=-26135.647454023583 free_energy=-26135.647454023583 dipole="0.503093014380032 1.5706424584067624 0.22883775595179393" pbc="F F F"
C       -0.31944063       1.08521054       0.67030598      -1.26918695      -0.35790630      -1.01290567
Cl      -0.96774726      -2.04480164      -0.07068026      -0.06750506      -0.18139772      -0.00706960
H       -1.21188487       1.17467036      -0.03289796       1.09809994       0.29582312       1.09199992
H       -0.39481597       1.67882018       1.59199353      -0.10360999      -0.24913061      -0.34857599
H       -0.23953773      -0.00073441       0.79096698       0.02919934       0.15299937       0.40237535
Cl       1.12847533       1.59599933      -0.22325227       0.31300272       0.33961214      -0.12582402
6
Properties=species:S:1:pos:R:3:forces:R:3 energy=-26135.69141534698 free_energy=-26135.69141534698 dipole="1.0938938763332646 0.9573843401242802 0.8847227088314453" pbc="F F F"
C        0.53369297       0.10612522       1.15004431       0.41027848      -2.15380665      -1.19121071
Cl      -1.53151223      -1.52240342      -0.92051128      -0.11942708      -0.09790363      -0.07050507
H        0.20015257       0.30789514       2.15015950      -0.08259501       0.27907449       0.47060212
H        1.31802833      -0.70866140       1.13269497      -0.93162419       0.80324264       0.29885892
H       -0.29091330      -0.25716723       0.47649355       0.53535906       0.40313841       0.57550061
Cl       1.31579229       1.50515453       0.42396389       0.18800873       0.76625474      -0.08324587
6
Properties=species:S:1:pos:R:3:forces:R:3 energy=-26135.714162982877 free_energy=-26135.714162982877 dipole="-1.4647735744109953 -0.6327659726196675 -0.6173447676092887" pbc="F F F"
C       -0.71164642      -0.09157020      -1.14181972      -0.10996340       0.09683648       0.04213514
Cl       2.05868899       1.00907060       0.45839528       0.11825785       0.05705883      -0.00176199
H       -0.44399270      -0.70283409      -2.02167561      -0.46340088      -0.04408745       0.51197713
H        0.21587619       0.24328288      -0.64449462      -0.34460352      -0.10127674       0.16492250
H       -1.33929917       0.75427080      -1.42682923       0.27709567       0.00641524      -0.18517072
Cl      -1.77300380      -0.98642540       0.04485268       0.52261428      -0.01494637      -0.53210206
6
Properties=species:S:1:pos:R:3:forces:R:3 energy=-26135.495036040098 free_energy=-26135.495036040098 dipole="-0.8317538449143691 1.0201962594691698 -1.0759683475823734" pbc="F F F"
C       -0.02433355       0.35109512      -1.07607450       2.93868974      -1.43385086       1.43130992
Cl       1.32071299      -1.51296874       1.27271120       0.10578517      -0.19705350       0.18954254
H       -0.23957737      -0.40997283      -1.78306736      -0.44857361      -0.47859094      -1.09948983
H        0.12391672      -0.25184371      -0.11372901       0.50543888       1.03165455      -1.14277643
H        0.91635471       0.90135444      -1.40102390      -1.20403033      -0.60719879       0.63907454
Cl      -1.33523568       1.38720125      -0.81434918      -1.89730984       1.68503953      -0.01766074
6
Properties=species:S:1:pos:R:3:forces:R:3 energy=-26135.544008485816 free_energy=-26135.544008485816 dipole="1.3243146669688148 -0.42742446482411645 0.6892962970616223" pbc="F F F"
C        1.34626833      -0.61865697      -0.26901996       0.11995270       0.31706352      -1.03292158
Cl      -1.58604224       0.45032736      -1.23744306      -0.23670249       0.07784688      -0.14026152
H        2.03617414       0.09871978      -0.72277722       0.02049967       0.04115417       0.23713174
H        0.35772981      -0.43704306      -0.69613676       0.04820655      -0.56335536      -0.79049201
H        1.77911656      -1.61917936      -0.38255167      -0.39665388       0.05881085       0.25973749
Cl       1.01124863      -0.18505652       1.37981474       0.44469745       0.06847994       1.46680587
6
Properties=species:S:1:pos:R:3:forces:R:3 energy=-26135.658588492613 free_energy=-26135.658588492613 dipole="0.6276746179156947 0.8616552640816437 1.4495152554378004" pbc="F F F"
C        1.06133300       0.08479437       0.84297887      -1.32644002      -2.16583459      -1.16725205
Cl      -0.52403425      -1.32115390      -1.91004161       0.03946374      -0.02481223      -0.02943189
H        2.07476970       0.39155135       0.81138546       1.04990226       0.19165966       0.34283996
H        0.70719638      -0.14160042      -0.19102499       0.06475034       0.39757758       0.50128827
H        0.85224514      -0.87381296       1.37093446       0.63856448       0.72951735      -0.09308747
Cl       0.06110179       1.31016343       1.56780623      -0.46624080       0.87189223       0.44564317
6
Properties=species:S:1:pos:R:3:forces:R:3 energy=-26135.572465689667 free_energy=-26135.572465689667 dipole="1.4197425480434511 0.35439071082504103 -0.7402667867442695" pbc="F F F"
C        1.46385514      -0.03945283       0.20217478      -0.92025371      -0.77090757       1.40300012
Cl      -1.62308025      -0.58644643       1.25964001      -0.17153138      -0.05959546       0.17079472
H        0.61521468      -0.11851892       0.95095323       0.33284786       0.24991241      -1.39758686
H        2.23242371       0.53526194       0.66935817       0.70679260       0.83377660      -0.08105811
H        1.85402643      -1.04105124       0.07880202       0.01617280      -0.29136690      -0.35041636
Cl       0.99341475       0.61756548      -1.37645320       0.03597182       0.03818092       0.25526649
6
Properties=species:S:1:pos:R:3:forces:R:3 energy=-26135.6566719695 free_energy=-26135.6566719695 dipole="0.8806412554956695 -0.36687268833358266 1.513583377450126" pbc="F F F"
C        0.43076867      -0.74145201       0.54710469      -0.69176663      -0.46373812      -2.05928735
Cl      -1.24492307       0.24603010      -2.17782766      -0.02399923       0.00188998      -0.09753206
H        0.22790522      -0.07761935      -0.36196070       0.35482388      -0.44349688       1.40485098
H       -0.54328392      -1.11621666       0.85566920      -0.01959512      -0.06684307      -0.10779748
H        1.03037166      -1.61330339       0.16385239      -0.12041627       0.91458501       0.87010864
Cl       1.07864167       0.08500450       1.97376290       0.50095336       0.05760307      -0.01034272
6
Properties=species:S:1:pos:R:3:forces:R:3 energy=-26135.647832374423 free_energy=-26135.647832374423 dipole="1.4219657209903453 0.13570500110772646 1.1166904887158766" pbc="F F F"
C        1.08361177       0.92849572       0.48809083      -0.65175901      -2.14529598      -0.50556990
Cl      -1.75108393       0.24808556      -1.54218596       0.06839045       0.04883872       0.00713099
H        0.65188942       1.54083500       1.23359124      -0.34706375       1.04605524       0.48511120
H        0.34872576       0.64132999      -0.29174279       0.32726649       0.75038118       0.06122099
H        2.05581993       1.23051833       0.14147177       0.24196543       0.29399313      -0.18588708
Cl       1.29703181      -0.65971171       1.34600977       0.36120039       0.00602771       0.13799381
6
Properties=species:S:1:pos:R:3:forces:R:3 energy=-26135.624572138902 free_energy=-26135.624572138902 dipole="0.5388367928442711 0.8105273579374612 1.3445613119597946" pbc="F F F"
C        0.32449244       0.97842717       0.34030494      -1.14564295      -0.39233067      -1.30114866
Cl      -0.71705080      -0.88681981      -2.08510338      -0.09406815      -0.17298892      -0.26264563
H        1.24126212       0.98173946      -0.18698723       1.26157109       0.10257531      -0.37190962
H       -0.04591373       1.99772906       0.39415503      -0.42660342      -0.03542417      -0.30382494
H       -0.27838572       0.22099139      -0.24770914       0.09472931       1.04886355       0.73247416
Cl       0.58103453       0.46431058       1.97095565       0.31001413      -0.55069510       1.50705469
6
Properties=species:S:1:pos:R:3:forces:R:3 energy=-26135.536737679387 free_energy=-26135.536737679387 dipole="1.1595686994217345 -0.2980200036926402 1.0926500421247711" pbc="F F F"
C        0.29231608       0.21515855       1.12306192      -1.94726888       1.15112465       1.17004975
Cl      -1.76332379       0.59751848      -1.29817991      -0.33031422       0.10159808      -0.36249349
H       -0.22213776      -0.20838907       2.00905406      -0.01766358       0.29447758      -0.61787358
H       -0.33973744       0.32417753       0.24114171      -0.29714883      -0.49069080       0.00573260
H        0.61570864       1.21319636       1.34530805       0.17367976       0.68052662       0.43150033
Cl       1.66275192      -0.70820638       0.81543338       2.41871576      -1.73703614      -0.62691562
6
Properties=species:S:1:pos:R:3:forces:R:3 energy=-26135.519587915296 free_energy=-26135.519587915296 dipole="1.1135197742308103 -1.1086332867796667 -0.4681747671812344" pbc="F F F"
C        0.19652840      -1.19807768      -0.00171399      -2.75433420      -2.27258567       0.53259319
Cl      -1.70782662       1.29006973       0.73814514      -0.30845041       0.30771483       0.12818259
H        0.26520950      -1.83621745       0.90093847       0.72301395       0.17514720      -0.45048085
H       -0.42317455      -1.77449884      -0.72890820       0.49510446       0.27696628       0.36108703
H       -0.43860680      -0.38424177       0.30205805       0.13888849       1.01943392      -0.07752150
Cl       1.65820297      -0.77054847      -0.75104483       1.70577771       0.49332344      -0.49386046
6
Properties=species:S:1:pos:R:3:forces:R:3 energy=-26135.65029431325 free_energy=-26135.65029431325 dipole="-0.8669437880975637 0.15519067392377642 -1.458713821178273" pbc="F F F"
C        0.13013013      -0.08096986      -1.51737656       0.42725159       1.13558011       0.66214431
Cl       1.43816179      -0.28939737       1.64732770       0.08501600      -0.00542084       0.03112873
H        0.67764627      -0.00872634      -0.58372264       0.50013429      -0.12532151       0.18571372
H        0.54021078       0.63383905      -2.24384547      -0.48022903      -0.11055873       0.08158263
H        0.18381730      -1.07773079      -1.87533173      -0.21396426      -0.93715580      -0.44952693
Cl      -1.52210765       0.32970112      -0.99949320      -0.31820858       0.04287676      -0.51104246
6
Properties=species:S:1:pos:R:3:forces:R:3 energy=-26135.578568653036 free_energy=-26135.578568653036 dipole="1.1614259177519546 -0.2866405457352199 1.1589087360635797" pbc="F F F"
C        0.29276392       0.24968868       1.25448628      -1.68540892       0.73552362       1.05688821
Cl      -1.73299228       0.57692375      -1.31378354      -0.20442586       0.06772957      -0.20820401
H       -0.16599610      -0.15493884       2.16286089      -0.21272735      -0.64290255      -0.41356147
H       -0.40879759       0.38836152       0.42413184      -0.09730592      -0.34498222       0.05808451
H        0.55031888       1.22297672       1.61712267       0.93583579       0.86160009      -0.21189168
Cl       1.63449533      -0.70293395       0.76920291       1.26403226      -0.67696852      -0.28131556
6
Properties=species:S:1:pos:R:3:forces:R:3 energy=-26135.58005686668 free_energy=-26135.58005686668 dipole="1.3291878239168469 -0.5225958362419447 0.9184675849423992" pbc="F F F"
C        0.90669091      -0.73190347      -0.02662110      -2.19475773      -1.04064740      -2.02662892
Cl      -1.75923585       0.53134979      -1.49302009      -0.21112343       0.07418731      -0.16283573
H        0.09017800      -0.12143721      -0.47643145       0.50613656       0.17276398       0.57124571
H        0.44592025      -1.74201927      -0.08712635       0.39153614       0.35247016       0.86103350
H        1.69752374      -0.77229109      -0.73835379       1.12533409       0.29297883      -0.25843328
Cl       1.38852343      -0.20842380       1.53905882       0.38287437       0.14824712       1.01561873
6
Properties=species:S:1:pos:R:3:forces:R:3 energy=-26135.452871006662 free_energy=-26135.452871006662 dipole="0.08036495496549284 0.9762496024036017 1.3796926752257797" pbc="F F F"
C       -0.46352485       0.76486021       0.52748915      -2.49934472      -0.60363790      -4.46757610
Cl      -0.32198659      -1.26651501      -2.02573097      -0.00771749      -0.18712394      -0.26467331
H       -1.50837567       0.54077759       0.80228229       0.43224484      -0.08136390       0.27822352
H       -0.16854790      -0.03780792      -0.25787977      -0.16629341       1.03971806       1.39994063
H       -0.53677295       1.70995870      -0.05624617       0.24662237      -0.41457250       0.39558495
Cl       0.54198104       0.94444540       1.83312917       1.99448841       0.24698018       2.65850031
6
Properties=species:S:1:pos:R:3:forces:R:3 energy=-26135.6354435873 free_energy=-26135.6354435873 dipole="1.1200970712422993 -0.18766409859679462 1.390141076044314" pbc="F F F"
C        0.17075690       0.29492665       1.41345619      -1.24036099      -1.23193715       0.06872358
Cl      -1.67089180       0.42150035      -1.53548415      -0.05931615       0.01112729       0.01564973
H       -0.53798040       0.17282182       0.60141889      -0.24743584       0.08773627      -0.27430362
H        0.26390212       1.31874357       1.63517393       0.89384383       1.43864937      -0.08287139
H       -0.22663476      -0.15192441       2.31862718       0.02563513      -0.42284704       0.14244416
Cl       1.62727424      -0.55951790       0.92705865       0.62763402       0.11727127       0.13035755
6
Properties=species:S:1:pos:R:3:forces:R:3 energy=-26135.461220084366 free_energy=-26135.461220084366 dipole="-0.9754156132988038 0.021046785275504062 -1.364511779641085" pbc="F F F"
C       -1.15171542       0.53931109      -0.49513190       2.64690995       2.66403318      -0.47619104
Cl       1.06570777       0.21551249       1.96166631       0.11256927       0.02379811       0.18575003
H       -0.81132155       1.53215160      -0.89280130      -1.14507211      -0.33477487       0.73752014
H       -0.55007091       0.42854365       0.38979123       0.33230229      -0.59845726       0.58134589
H       -2.16167380       0.44062477      -0.29666177      -2.14559005      -0.14735264       0.04653133
Cl      -0.57531271      -0.46651943      -1.77116988       0.19888066      -1.60724653      -1.07495635
6
Properties=species:S:1:pos:R:3:forces:R:3 energy=-26135.608826770906 free_energy=-26135.608826770906 dipole="-1.3675563149953558 0.14839220994301824 -0.9984947264060984" pbc="F F F"
C       -1.22153252      -0.67662365      -0.36640717       0.28669251       1.05285245      -1.01081210
Cl       1.61074536      -0.57516556       1.42949049       0.09292045      -0.06537060       0.10325348
H       -1.03085823      -1.52078548      -0.97564228       0.18281778      -0.62087523      -1.18344631
H       -2.20506168      -0.72017767      -0.01268855      -1.46333583      -0.01050468       0.75751260
H       -0.47119255      -0.67817758       0.37260679       0.93699369       0.32484930       1.23761252
Cl      -1.09146196       0.88742002      -1.28783841      -0.03608861      -0.68095123       0.09587981
6
Properties=species:S:1:pos:R:3:forces:R:3 energy=-26135.6763363759 free_energy=-26135.6763363759 dipole="0.5943991262239287 1.4437936993603493 0.7246156732862803" pbc="F F F"
C        0.47141596       0.46595176       1.14637007       0.38324791      -1.01634375      -0.92390823
Cl      -0.70573307      -2.08536463      -0.61582126      -0.07695816      -0.15722250      -0.02361201
H        0.37759221       0.73462416       2.16394768      -0.15333401       0.64587297       1.14554767
H        1.44656569       0.00123614       0.98880256      -0.20616917      -0.18448149       0.06663439
H       -0.31218137      -0.25561556       0.85217845       0.33980863       0.46133160      -0.28335051
Cl       0.50301799       1.91383760       0.11353581      -0.28659520       0.25084318       0.01868868
6
Properties=species:S:1:pos:R:3:forces:R:3 energy=-26135.667789869025 free_energy=-26135.667789869025 dipole="1.0113315955525501 -0.22764460739488254 1.4018471278883096" pbc="F F F"
C        0.15831152       0.36246177       1.08838373      -1.20037872       0.97901200       0.29614661
Cl      -1.55036709       0.52861588      -1.73769830      -0.13295135       0.03197759      -0.17158283
H        0.37038146       1.43700502       1.04983647       0.69731983      -0.28839040      -0.00499482
H       -0.45430153       0.20860469       1.96852839      -0.42978293      -0.08213011       0.02307353
H       -0.36400581       0.13205939       0.16965447      -0.30833402      -0.17712432      -0.22963003
Cl       1.50946524      -0.70197043       1.27828785       1.37412720      -0.46334475       0.08698754
6
Properties=species:S:1:pos:R:3:forces:R:3 energy=-26135.531643346396 free_energy=-26135.531643346396 dipole="0.8224801280723381 -0.5270470637955007 1.3493409209605431" pbc="F F F"
C        0.60451846      -1.30041147       0.74347375       1.01728537      -0.93571897      -0.35364068
Cl      -1.04231206       0.28681372      -1.79970937      -0.05180454      -0.04944513      -0.08907052
H       -0.00377850      -1.03929338      -0.09204783      -0.62479410      -0.23419533      -0.98984172
H        0.11563111      -2.03799432       1.38377527      -0.07846813       0.40215938       0.28478342
H        1.56300606      -1.78094438       0.37659754      -0.76130097       1.02804566       0.56771418
Cl       0.78986837       0.29192648       1.50037130       0.49908237      -0.21084560       0.58005533
6
Properties=species:S:1:pos:R:3:forces:R:3 energy=-26135.54733610085 free_energy=-26135.54733610085 dipole="-0.047835999494352494 -0.9783356570684036 -1.3684009146324028" pbc="F F F"
C       -0.76987379      -0.35133331      -0.93908857       0.12644338       2.36232169       2.45947153
Cl      -0.24972140       1.42334873       1.79974599       0.00437016       0.14209209       0.16092264
H       -1.39567513       0.05387997      -1.72665595      -0.03722926      -0.56248960      -0.44590271
H       -0.35239379       0.54928800      -0.35348412      -0.65736441      -1.25665639      -0.76315472
H       -1.29415475      -0.90776733      -0.15436475      -0.26407120       0.10509773      -0.49574170
Cl       0.59707021      -1.29565055      -1.41803164       0.82785133      -0.79036552      -0.91559504
6
Properties=species:S:1:pos:R:3:forces:R:3 energy=-26135.47175116962 free_energy=-26135.47175116962 dipole="0.6815710665108013 1.3637718708358444 0.3765144468672064" pbc="F F F"
C        0.19372637       1.61724933      -0.42502636      -0.42736213      -2.57493401       0.31604565
Cl      -1.01574738      -1.49447042      -0.80001547      -0.13615680      -0.09605640      -0.16250726
H       -0.15554445       0.73312899      -0.98980277       0.30742701       0.31849907      -0.20682559
H        0.96795351       2.15567233      -0.91174999       0.33754998       0.85730021      -0.43019229
H       -0.72327726       2.10266253      -0.14999502      -0.02217249       0.85288812       0.40528953
Cl       0.94757552       0.80459236       1.00235543      -0.05928556       0.64230301       0.07818996
6
Properties=species:S:1:pos:R:3:forces:R:3 energy=-26135.59965885299 free_energy=-26135.59965885299 dipole="1.2778005950098046 -0.6756664981993175 0.7707304254763128" pbc="F F F"
C        1.06701851      -1.23946054      -0.01678157      -1.75886103       1.52082679      -0.02767341
Cl      -1.58456562       0.53451736      -1.25110471      -0.05305453      -0.03751906      -0.11693613
H        1.98899815      -1.24107528      -0.54564854       0.88698545      -0.19477887      -0.28832040
H        0.23423971      -0.84490962      -0.66393350       0.53534234      -0.66353788       0.38747094
H        0.82425571      -2.15008180       0.49660008      -0.01059932      -0.61926658      -0.11687574
Cl       1.13638980       0.00588083       1.27706379       0.40018709      -0.00572440       0.16233474
6
Properties=species:S:1:pos:R:3:forces:R:3 energy=-26135.703306125466 free_energy=-26135.703306125466 dipole="0.39235420512145786 1.6538916620078008 -0.12186063041172773" pbc="F F F"
C       -0.07372582       1.13364140      -0.88600244      -1.32410003      -0.55931643       0.28167940
Cl      -0.66309633      -2.15578231      -0.20241129      -0.04901000      -0.09034470      -0.03424284
H       -1.05923142       1.64044879      -1.00916521       0.88818547      -0.01489521      -0.00197378
H       -0.29685111       0.05637463      -0.75153650       0.33116893       0.25469825      -0.17648500
H        0.62400775       1.32913801      -1.67999812       0.03385551       0.05722434      -0.53173562
Cl       0.70889188       1.68564589       0.60043670       0.11990014       0.35263376       0.46275785
6
Properties=species:S:1:pos:R:3:forces:R:3 energy=-26135.760484834038 free_energy=-26135.760484834038 dipole="1.3376094892483517 -0.6279092762579471 1.0090198341071899" pbc="F F F"
C        0.96574193      -0.83321452       0.00066226      -0.78417234       0.78539375       0.61849381
Cl      -1.69526644       0.59506782      -1.65383344      -0.01503299       0.01125027      -0.03507217
H        1.89227440      -0.73715014      -0.53882357       0.24486290       0.01888992      -0.33733107
H        0.14479848      -0.18397399      -0.39169453       0.51662897      -0.69047785      -0.08494080
H        0.67306880      -1.86917687       0.12681567      -0.12968840      -0.09518257      -0.25329316
Cl       1.29099707      -0.23342147       1.67646186       0.16740186      -0.02987352       0.09214339
6
Properties=species:S:1:pos:R:3:forces:R:3 energy=-26135.567140100407 free_energy=-26135.567140100407 dipole="0.42621415663779816 1.5616855562564556 0.0035932963550433365" pbc="F F F"
C       -0.49295309       1.16603141      -0.17593347      -2.07117897      -1.83431448       0.77942313
Cl      -0.91355638      -2.06045794      -0.06486976      -0.11308300      -0.30399362      -0.00102418
H       -0.90771753       1.83238950      -0.90610174      -0.21304014       0.51521143      -0.31821120
H       -1.04557714       1.19851046       0.78257343       0.19653939       0.52410482      -0.42251024
H       -0.70212569       0.08172400      -0.44718389       1.02126921       0.98471570      -0.06652501
Cl       1.15608172       1.57688310       0.14070657       1.17949351       0.11427615       0.02884750
6
Properties=species:S:1:pos:R:3:forces:R:3 energy=-26135.57994828587 free_energy=-26135.57994828587 dipole="-1.4197658625329943 0.9623607956388776 -0.325754645915882" pbc="F F F"
C       -0.71407064       0.54317049      -0.98147759       2.56620695      -1.61687347      -0.08228258
Cl       1.95261551      -1.31363953       0.10516028       0.09967162      -0.04989417      -0.01258974
H       -1.23532555      -0.23681536      -1.48398627      -0.62724147      -0.52183444      -0.54889561
H        0.21863997       0.04915468      -0.58357191      -0.81174043       0.30774708      -0.01178133
H       -0.32690258       1.24920954      -1.69524257      -0.48998241       0.98476102      -0.09867492
Cl      -1.67247336       1.09942058       0.33437232      -0.73691425       0.89609398       0.75422418
6
Properties=species:S:1:pos:R:3:forces:R:3 energy=-26135.698479949253 free_energy=-26135.698479949253 dipole="1.3382077050345145 -1.1801740535350216 0.26113082697708495" pbc="F F F"
C        0.44654981      -1.31481207      -0.31576081      -1.21683579      -0.01310794       1.05977241
Cl      -1.92052960       1.25706177      -0.55098031      -0.00834879      -0.02638505      -0.01911823
H        0.80475753      -1.74843489      -1.23073233       0.39783871       0.20330294      -0.53306597
H       -0.23798215      -0.45012661      -0.41315979      -0.02959646      -0.54802508      -0.45181894
H       -0.03901030      -2.12766802       0.25673089       0.09878394       0.46731700      -0.20884161
Cl       1.75422503      -0.68856961       0.69740800       0.75815840      -0.08310187       0.15307234
6
Properties=species:S:1:pos:R:3:forces:R:3 energy=-26135.641255896415 free_energy=-26135.641255896415 dipole="1.3159755940288027 -0.5308689922227225 0.8911402117881921" pbc="F F F"
C        0.89707014      -0.74980508      -0.04835317      -0.10337486      -0.77525584      -1.60577745
Cl      -1.72776766       0.51751144      -1.47829091      -0.29534144       0.09926457      -0.19021351
H       -0.08894389      -0.38694806      -0.37059050       0.23816600       0.27189698       0.20042782
H        0.89492727      -1.82821720      -0.10861796      -0.22786209      -0.58443194       0.65969917
H        1.64967977      -0.52171571      -0.80340275       0.08318455       0.76087628       0.17129623
Cl       1.35400129      -0.18564445       1.53114400       0.30522783       0.22764994       0.76456774
6
Properties=species:S:1:pos:R:3:forces:R:3 energy=-26135.614870892023 free_energy=-26135.614870892023 dipole="-0.2652298140705557 1.211428636510024 -1.121384614430031" pbc="F F F"
C       -0.99897474       0.51249147      -0.92305513      -0.99174548       0.86012175       0.50942776
Cl      -0.02043657      -1.68543280       1.35393140      -0.02078871      -0.16585653       0.15443143
H       -1.06581766      -0.03145492      -1.82222085       0.07111659      -0.80804451      -1.09324720
H       -1.89866706       1.12431939      -0.83384441       0.21157827       0.53337043      -0.19348802
H       -1.01652135      -0.13136069      -0.07044061       0.63681420      -0.68647070       0.58242070
Cl       0.47210201       1.48445309      -0.96365966       0.09302514       0.26687956       0.04045534
6
Properties=species:S:1:pos:R:3:forces:R:3 energy=-26135.710002707645 free_energy=-26135.710002707645 dipole="0.19909118461987446 -0.5455088945989187 -1.562963302786488" pbc="F F F"
C        0.64595501       0.25964570      -1.05945529      -0.49347098       1.24699001       0.05452872
Cl      -0.01677484       1.01730837       2.08776965      -0.03170571       0.11232151       0.22558281
H        1.67085195      -0.06248724      -1.01033305       0.45166515       0.04623953       0.11247214
H        0.26949568       0.58607915      -0.06499951       0.23030410      -0.55527358      -0.31147147
H        0.53878434       1.14467684      -1.73400179       0.02695111      -0.95390042       0.10360907
Cl      -0.27257722      -1.15271653      -1.64892828      -0.18374367       0.10362296      -0.18472126
6
Properties=species:S:1:pos:R:3:forces:R:3 energy=-26135.706301198807 free_energy=-26135.706301198807 dipole="1.4102229638274935 -0.7111701349870482 0.5171922833882329" pbc="F F F"
C        0.87610291      -0.88612258      -0.35210792      -0.10893813       1.06902984      -1.03643059
Cl      -1.90662145       0.76319378      -1.01738617      -0.21957149       0.12055118      -0.11335006
H        0.62428716      -1.92479041      -0.33269072      -0.09594962      -0.66465595       0.10526069
H        1.62728758      -0.66247216      -1.10446825       0.27929703      -0.31742790      -0.09732368
H        0.00622292      -0.26344053      -0.63000991      -0.01222016      -0.27062664       0.51946250
Cl       1.54558528      -0.38190388       1.19546444       0.15738237       0.06312947       0.62238114
6
Properties=species:S:1:pos:R:3:forces:R:3 energy=-26135.576083346565 free_energy=-26135.576083346565 dipole="-0.8326871230100079 -0.9696971370327184 1.2256335128849598" pbc="F F F"
C       -1.11278842      -0.68959031       0.24876750       1.61035351       2.06203046      -0.52261215
Cl       0.81335517       1.23668338      -1.84263914       0.03364385       0.04165842      -0.06563339
H       -1.29293898      -1.55877919      -0.28764320      -0.45797771      -1.85421916      -0.74265547
H       -0.38427452      -0.07155437      -0.30292657      -0.54502239      -0.03550202      -0.32721087
H       -1.97426499      -0.12880262       0.46950970      -1.32933468       0.62276302      -0.09856934
Cl      -0.33249785      -0.95301968       1.76179519       0.68833742      -0.83673071       1.75668123
6
Properties=species:S:1:pos:R:3:forces:R:3 energy=-26135.581959335057 free_energy=-26135.581959335057 dipole="-1.617349182091873 0.4422173830241648 -0.08099860710356109" pbc="F F F"
C       -1.05640337       1.25051011       0.09152874       1.29853814      -1.50195782      -0.12099465
Cl       2.09982036      -0.14213175       0.15357227       0.05281338       0.09236318       0.04081428
H        0.00588756       1.05792176       0.39491315      -0.69559163       0.59120018      -0.15266527
H       -1.68556626       1.73515408       0.80667268      -0.29772061       0.33657159       0.50805209
H       -1.12272717       1.67682464      -0.88528335       0.16044472       0.79782645      -0.45028809
Cl      -1.66221003      -0.40865913      -0.19357748      -0.51848401      -0.31600358       0.17508165
6
Properties=species:S:1:pos:R:3:forces:R:3 energy=-26135.60540325685 free_energy=-26135.60540325685 dipole="1.5034154717746462 0.3505234054520133 -0.7828144384387131" pbc="F F F"
C        1.37804736       0.02652513       0.22810437       2.02391316      -1.09589734       0.23256314
Cl      -1.75789421      -0.53584882       1.32520208      -0.10151043      -0.05625808       0.11662179
H        0.49110915      -0.23122551       0.72928978      -1.92833834       0.12968846       0.16811366
H        1.87719443       0.82158040       0.77533895       0.19004816       0.04140578      -0.07605598
H        1.96438055      -0.93238607       0.28525833      -0.07495146       1.06160136      -0.42009190
Cl       1.16779344       0.53658716      -1.45338171      -0.10916107      -0.08054019      -0.02115071
6
Properties=species:S:1:pos:R:3:forces:R:3 energy=-26135.705590344256 free_energy=-26135.705590344256 dipole="1.4139894397748205 -0.3502339746225815 0.9388893235596333" pbc="F F F"
C        1.25621347      -0.40663718      -0.11861787      -1.02005856       1.06776389      -0.01908187
Cl      -1.69661125       0.38133461      -1.58840819      -0.07634867       0.03548985      -0.10919181
H        1.39899954      -1.41907672      -0.40300646       0.13230981      -1.04587379       0.12944004
H        2.04216969       0.20028624      -0.50521775       0.95226700       0.42257424       0.03113666
H        0.33742068      -0.01716647      -0.58737708      -0.13050001      -0.28933738       0.41947236
Cl       1.16354500      -0.20841602       1.67112428       0.14233043      -0.19061681      -0.45177537
6
Properties=species:S:1:pos:R:3:forces:R:3 energy=-26135.586463580737 free_energy=-26135.586463580737 dipole="-1.4166411314308167 0.9480477162829889 -0.21714045140708896" pbc="F F F"
C       -0.67164087       0.68126287      -0.89902732       1.19814762      -2.22866767       0.23334199
Cl       1.97614648      -1.21573972      -0.04940565       0.16766795      -0.07907315       0.00388034
H       -1.14396424       0.04889476      -1.62778694      -0.38294977      -0.28087388      -0.29367990
H        0.24357344       0.17704729      -0.55265765      -0.30504008      -0.30486745       0.09998494
H       -0.30795958       1.53434278      -1.35117894       0.16074464       2.40017951      -0.83740189
Cl      -1.71422559       0.93486481       0.45442945      -0.83857037       0.49330264       0.79387452
6
Properties=species:S:1:pos:R:3:forces:R:3 energy=-26135.69759587026 free_energy=-26135.69759587026 dipole="1.2052462977889429 -0.6082896379976253 1.1434925211942968" pbc="F F F"
C        0.55965138      -0.81203548       0.26920448      -1.67419941      -0.95738177      -1.00345288
Cl      -1.68673768       0.60285476      -1.70705413      -0.12505111       0.05607861      -0.12201843
H       -0.04676909      -0.04390708      -0.23685541       0.36670924       0.09882988       0.23416788
H       -0.18064922      -1.52178238       0.69403274       0.53192694       0.09216932      -0.59184159
H        1.22401056      -1.27439634      -0.46882794      -0.17097235      -0.08177617       0.25252248
Cl       1.46878175      -0.24696859       1.61617483       1.07158669       0.79208013       1.23062254
6
Properties=species:S:1:pos:R:3:forces:R:3 energy=-26135.67485588414 free_energy=-26135.67485588414 dipole="-1.4805907050477232 0.8700617579025218 0.15030520619711774" pbc="F F F"
C       -0.62428109       1.08923812      -0.42705228       0.33489325      -2.56704469      -1.22323112
Cl       2.13573483      -0.90197911      -0.45444826       0.09788622      -0.01713502      -0.02821929
H       -0.97273962       0.95639603      -1.48109351       0.16612602       0.38375316       0.87556584
H        0.32670704       0.48836789      -0.32362051      -0.81999093       0.50980373       0.13540957
H       -0.53158255       2.07812864      -0.12390374       0.39304995       1.92422436       0.16958607
Cl      -1.89073409       0.43275726       0.65397920      -0.17196450      -0.23360155       0.07088893
6
Properties=species:S:1:pos:R:3:forces:R:3 energy=-26135.398528946957 free_energy=-26135.398528946957 dipole="1.41186468638061 -0.7354067158194775 0.3949053652785228" pbc="F F F"
C        0.90099887      -0.16812651       1.04324159      -2.46738452       1.67580684       2.61040684
Cl      -1.89145801       1.13100779      -0.23826769      -0.19533496       0.10113909      -0.02004306
H       -0.16054253       0.22229274       0.82414866       1.39969062      -0.60542243      -0.09725937
H        1.56017591       0.68477676       1.04069908       0.02740053       0.55332897       0.78490706
H        0.83967142      -0.67378058       2.06858744       0.56117107       0.34594988      -1.49822743
Cl       1.52251254      -1.08067741      -0.22704338       0.67445726      -2.07080235      -1.77978404
6
Properties=species:S:1:pos:R:3:forces:R:3 energy=-26135.60020430473 free_energy=-26135.60020430473 dipole="-0.049259426922921644 0.6559845016965027 -1.593308305279695" pbc="F F F"
C       -0.51348219       1.04308013      -0.74356965      -2.16770318      -0.88130708       1.47277831
Cl      -0.15629222      -0.60572033       2.20411831      -0.02963939      -0.02289528       0.14098150
H       -0.33029228       2.08586624      -0.64305973       0.72207433       0.90754466      -0.48535153
H       -0.45110632       0.58769346       0.26419553       0.47385497      -0.08274084      -0.38177378
H       -1.56347216       0.90344153      -1.02556258       0.05317304       0.25132158      -0.04167186
Cl       0.39694283       0.15059895      -1.91225154       0.94824023      -0.17192303      -0.70496265
6
Properties=species:S:1:pos:R:3:forces:R:3 energy=-26135.63958631848 free_energy=-26135.63958631848 dipole="-1.2497399267071345 -1.2704597852435977 -0.40065582977780967" pbc="F F F"
C       -0.25188073      -0.86041621      -0.67216327       2.36062222      -0.09495164       0.71726882
Cl       1.85408823       1.61207628       0.32884387       0.07647011       0.06753559       0.00066235
H        0.39584625      -1.72403631      -0.51649691       0.09920406       0.04720128      -0.17883271
H        0.22500292      -0.01043995      -0.19151532      -0.09674721       0.18705393       0.51179016
H       -0.27369811      -0.59808463      -1.68593197      -0.42547104       0.08307245      -1.69120097
Cl      -1.77861824      -1.25422916      -0.03303431      -2.01407813      -0.28991161       0.64031235
6
Properties=species:S:1:pos:R:3:forces:R:3 energy=-26135.499327573612 free_energy=-26135.499327573612 dipole="-0.9448810362449755 1.1539913499551115 -0.5697655608815521" pbc="F F F"
C       -0.31371947       1.20968681       0.18819351       3.31330692      -0.42956043       1.79201882
Cl       1.43040479      -1.40061317       1.00522897       0.24491981      -0.32278328       0.12792439
H        0.50311331       1.87672798      -0.13013261      -0.37082079       0.04643014       0.08213721
H        0.21655453       0.25457063       0.46143828      -0.47740923       0.71161469      -0.03316731
H       -0.76615922       1.60387755       1.08576905      -0.65063350       0.22320964       0.02874571
Cl      -1.32278990       0.88454531      -1.10928549      -2.05936322      -0.22891077      -1.99765883
6
Properties=species:S:1:pos:R:3:forces:R:3 energy=-26135.650154893567 free_energy=-26135.650154893567 dipole="0.9230787245572155 -1.294966591476956 1.1861418622274083" pbc="F F F"
C        0.17441167      -1.45156924       0.34667681       1.04404354      -0.68809104      -0.93746381
Cl      -1.33061396       1.30578090      -1.65877938       0.04831896      -0.13197672       0.04956680
H       -0.49795174      -2.10716571       0.89132368      -0.52506233       0.49422701       0.09008495
H        0.74901479      -2.16052965      -0.31661380      -0.18115339       0.97195203       0.61407850
H       -0.22579144      -0.62137730      -0.25103397      -0.53671631      -0.37488314       0.12168382
Cl       1.27080205      -0.67494921       1.53211646       0.15056953      -0.27122812       0.06204974
6
Properties=species:S:1:pos:R:3:forces:R:3 energy=-26135.55956617272 free_energy=-26135.55956617272 dipole="-1.1940394071657736 -0.4246607939785927 -1.3539153245642248" pbc="F F F"
C       -1.44427209       0.19485599      -0.54636440       0.93867536       1.74682444       1.42499324
Cl       1.22114768       0.74346057       1.81968455      -0.11880440       0.00359249      -0.02173888
H       -1.23575646       1.20507686      -0.92653162      -0.55508471      -0.10486369       0.18781724
H       -0.89984094       0.16585173       0.43367124      -0.80664920      -0.10841243      -0.45955053
H       -2.49396819      -0.05220124      -0.55628793      -0.31500797       0.02613305       0.28538736
Cl      -0.60016731      -0.84697799      -1.60473605       0.85687092      -1.56327386      -1.41690843
6
Properties=species:S:1:pos:R:3:forces:R:3 energy=-26135.70380425405 free_energy=-26135.70380425405 dipole="-1.6862194687543706 0.7101503030793179 -0.17485886154728145" pbc="F F F"
C       -0.86726382       0.95164013      -0.81070785       0.70348164      -0.86033811      -0.79620371
Cl       2.23542155      -0.68430944      -0.09057996      -0.03340438       0.06616118      -0.07224582
H       -1.31332138       0.61803204      -1.76182269       0.26913424       0.26977046       0.23611638
H        0.17410569       0.54110799      -0.71601558      -0.74005271       0.37627567       0.10426097
H       -0.92667307       2.02265372      -0.71677324       0.18442422       0.41843132      -0.06473796
Cl      -1.88283702       0.27140682       0.45609704      -0.38358302      -0.27030052       0.59281014
6
Properties=species:S:1:pos:R:3:forces:R:3 energy=-26135.658495046348 free_energy=-26135.658495046348 dipole="1.5329748276179491 -0.43831129213666603 0.9274046519433227" pbc="F F F"
C        1.17760731      -0.50057817      -0.11481682      -1.22428970       2.36822865      -2.07828524
Cl      -1.89340708       0.48413873      -1.51132433       0.02172660      -0.01617226      -0.02579400
H        1.47578070      -1.45102593      -0.48773149       0.38165626      -0.92672992       0.11738151
H        1.73674159       0.30924143      -0.64980382      -0.10573687      -0.77688779       0.49402216
H        0.11464754      -0.27525651      -0.43181342       0.74884548      -0.45647943       0.60075294
Cl       1.39980966      -0.27424249       1.59484953       0.17779823      -0.19195925       0.89192263
6
Properties=species:S:1:pos:R:3:forces:R:3 energy=-26135.62562244923 free_energy=-26135.62562244923 dipole="1.6830143614548576 -0.9171296699051712 0.5397275547261043" pbc="F F F"
C        1.12973531      -1.10948650      -0.40249140      -1.25398683      -0.46338485       0.68314711
Cl      -2.04896660       0.88633333      -1.00493592       0.12364722      -0.11345746      -0.02723228
H        1.05228912      -2.20264720      -0.24033770      -0.31302675       0.61661800      -0.04728689
H        1.85319224      -0.97511989      -1.18599716       0.63363565       0.59845340      -0.01700200
H        0.16411070      -0.61477814      -0.65122210       0.42659707      -0.49281167      -0.05291088
Cl       1.57891302      -0.40258360       1.20038025       0.38313363      -0.14541742      -0.53871506
6
Properties=species:S:1:pos:R:3:forces:R:3 energy=-26135.622177750403 free_energy=-26135.622177750403 dipole="-1.8899342117198388 -0.632108035481052 -0.18960770828170243" pbc="F F F"
C       -1.32057214       0.13373647       0.45432664       0.04362447       2.25164811      -0.69463116
Cl       2.27549533       1.01188023       0.48315334      -0.11349738      -0.00750164       0.01187412
H       -1.35829960      -0.13541316       1.47795868      -0.37383993      -0.82161568       0.92843519
H       -2.00106678       1.00348459       0.26753616       0.67887260      -0.63182232       0.23734553
H       -0.29188867       0.38513773       0.23846695       0.41904047       0.52139746       0.07483810
Cl      -1.72424407      -1.09282645      -0.69349892      -0.65420023      -1.31210593      -0.55786178
6
Properties=species:S:1:pos:R:3:forces:R:3 energy=-26135.58974022335 free_energy=-26135.58974022335 dipole="0.6481415117534833 1.0333256985242665 1.4534220522476982" pbc="F F F"
C        0.88568205       0.01423583       1.08705535      -0.84234596       0.41912993      -3.77548084
Cl      -0.61257603      -1.64241095      -1.80228012       0.08406168       0.02608111       0.08528516
H        1.95286351       0.13069426       1.05284131       0.47215232      -0.33590732       0.43893034
H        0.52149045      -0.37476339       0.03663117       0.53519511       0.79373369       1.77202261
H        0.45206360      -0.62749736       1.78854005      -0.17508617      -0.93952968       1.39967652
Cl       0.22928249       1.66237012       1.35213461      -0.07397698       0.03649227       0.07956621
6
Properties=species:S:1:pos:R:3:forces:R:3 energy=-26135.62237661168 free_energy=-26135.62237661168 dipole="1.6159315105238232 0.6339516666572135 -0.9607060955438492" pbc="F F F"
C        1.25912160      -0.12666189      -0.15167542       0.31312984      -3.19071056       0.30671301
Cl      -1.90240934      -1.01829040       1.39446844       0.10388412       0.00388570      -0.00835457
H        0.30022366      -0.28204125       0.36702422      -0.20178561       0.53271270      -0.48952941
H        2.01419494       0.05898891       0.59212093       0.39563804       0.10537754       0.33561851
H        1.51290077      -1.12132195      -0.66551060      -0.34465316       1.34391284       0.78527637
Cl       1.36697218       1.09943188      -1.35142782      -0.26621323       1.20482180      -0.92972391
6
Properties=species:S:1:pos:R:3:forces:R:3 energy=-26135.599668507504 free_energy=-26135.599668507504 dipole="-1.7091984292536166 -0.7659183747374934 -0.7093705160086664" pbc="F F F"
C       -0.83783081      -0.14395699      -1.12951185       1.39593570      -0.35502727      -1.58813967
Cl       2.20897873       1.07210712       0.57779981      -0.06399741      -0.03166926      -0.08410637
H       -0.49948727      -0.78175479      -1.95348078      -0.43017782      -0.14417864      -0.01538754
H        0.06539687       0.06661696      -0.61764939       0.95099190       0.58452335       0.92103616
H       -1.20867831       0.76728318      -1.56402841      -0.75739345       0.34784413       0.20308685
Cl      -1.87839773      -1.02481502      -0.07752317      -1.09535892      -0.40149232       0.56351058
6
Properties=species:S:1:pos:R:3:forces:R:3 energy=-26135.51894724637 free_energy=-26135.51894724637 dipole="1.73960133114214 0.07311094137453986 -0.5526253311111378" pbc="F F F"
C        1.29696427       0.62890095       0.24539942      -0.97483032       2.30096687      -0.23867635
Cl      -2.10750705       0.12767534       0.98101013       0.04926704       0.07321889       0.00772006
H        0.19848712       0.94121725       0.27156208       1.47425291      -0.19547984       0.02140476
H        2.07371215       1.43827409       0.26820642      -0.96133917      -0.38597599      -0.31133971
H        1.48957601       0.02783791       1.06483030       0.09708219      -1.10170628       1.97384253
Cl       1.56111192      -0.40920756      -1.10978102       0.31556736      -0.69102365      -1.45295128
6
Properties=species:S:1:pos:R:3:forces:R:3 energy=-26135.5081143201 free_energy=-26135.5081143201 dipole="0.8035174008760204 -0.5025574849262325 1.6289585860684856" pbc="F F F"
C        0.28593549      -1.21468511       1.08521416      -3.50928610      -0.19002877      -0.91956402
Cl      -1.08230180       0.26024839      -1.99896461      -0.01045897      -0.11568512       0.07107625
H       -0.44314178      -1.59452926       1.83008058       0.50006245       0.39338000      -0.03122970
H        1.05268549      -1.90486061       0.99514208       1.45362393      -1.49382038      -0.47465612
H       -0.32253431      -1.07466557       0.13649250       1.01802471      -0.04303535       0.72043152
Cl       0.97726155       0.28136602       1.54706289       0.54803397       1.44918961       0.63394208
6
Properties=species:S:1:pos:R:3:forces:R:3 energy=-26135.52977624098 free_energy=-26135.52977624098 dipole="1.0399657411359666 -0.07353229237832479 1.5801058614658061" pbc="F F F"
C        0.07428401       0.35543914       1.49744062      -2.28223107       0.84144572      -0.62833180
Cl      -1.54902452       0.24783702      -1.77345629       0.00939841       0.00354465       0.10722451
H       -0.51339575      -0.15626426       2.24390161       0.03033949      -0.71121169       0.28895828
H       -0.47644646       0.28780928       0.52675281      -0.08646005       0.78787753       0.71625351
H        0.19977960       1.36044476       1.91825199       0.22919344       0.00836226      -0.63633306
Cl       1.54632093      -0.41068907       1.13277429       2.09975978      -0.93001848       0.15222855
6
Properties=species:S:1:pos:R:3:forces:R:3 energy=-26135.56532102638 free_energy=-26135.56532102638 dipole="0.6494688215502346 1.5231156179974288 0.8854815484222167" pbc="F F F"
C        0.65424018       0.56670168       1.31405616       1.26292530      -2.87935473      -0.33258339
Cl      -0.71024051      -2.05914776      -0.79825672       0.03639472       0.01469277       0.10140067
H        0.29550862       0.79581369       2.27149489      -0.58880263       0.51210648       1.41510015
H        1.71851750       0.26625183       1.38138642      -0.35694456       0.48448882      -0.02578368
H        0.15732266      -0.33081217       0.91731784      -0.18968793       0.18486712       0.00145682
Cl       0.42683294       1.84634784       0.22308354      -0.16388490       1.68319954      -1.15959057
6
Properties=species:S:1:pos:R:3:forces:R:3 energy=-26135.662087231947 free_energy=-26135.662087231947 dipole="0.3733251011109103 1.5532334256637612 0.9586465584782459" pbc="F F F"
C       -0.06908738       0.68060329       1.40321384      -0.84807045       0.30934804      -0.08698254
Cl      -0.61249490      -2.08383758      -0.84449327       0.00357570       0.02886902       0.10096779
H       -1.07252706       1.01571465       1.70942003       0.21182222       0.03788026      -0.55316566
H        0.48883378       0.63506115       2.32238337       0.75293699      -0.07808025       0.11050667
H       -0.12101826      -0.24532496       0.85067469      -0.14764254      -0.65238166       0.09558278
Cl       0.65594081       1.81327565       0.23023264       0.02737807       0.35436459       0.33309096
6
Properties=species:S:1:pos:R:3:forces:R:3 energy=-26135.584523407742 free_energy=-26135.584523407742 dipole="-1.5655036460321918 0.7535198479458804 -0.7126906690796418" pbc="F F F"
C       -1.01541338       0.07252100      -1.27371602       0.56420174      -1.67459409       0.07615664
Cl       1.92708251      -1.10716320       0.54207680      -0.07252373      -0.02393873      -0.10897059
H       -1.88032877      -0.53230213      -1.48861554      -0.18201940      -0.66303990      -0.12731930
H       -0.14739752      -0.52956511      -0.91437678      -0.42320124       0.36202142      -0.39578225
H       -0.81691684       0.62103740      -2.16412547       0.51446869       0.69979651      -0.57757659
Cl      -1.50215923       1.09512672       0.01934091      -0.40092606       1.29975479       1.13349209
6
Properties=species:S:1:pos:R:3:forces:R:3 energy=-26135.5445885487 free_energy=-26135.5445885487 dipole="-1.455109548100351 0.797350469149425 -0.8011325500035141" pbc="F F F"
C       -0.94129705       1.28692107      -0.04431073       2.81540529      -1.83588352       1.36387145
Cl       1.86257253      -0.68922080       1.22212601      -0.05176552       0.10382806       0.00350128
H       -0.01316758       0.80524276       0.41980588      -1.07210285       0.41398337      -0.30583477
H       -1.64546927       1.41714144       0.73985051      -0.87396527       0.38011612       0.39549313
H       -0.55821245       2.15888240      -0.49549941      -0.17314281       1.29888661      -0.69738435
Cl      -1.48061194       0.12861359      -1.22599777      -0.64442884      -0.36093065      -0.75964674
6
Properties=species:S:1:pos:R:3:forces:R:3 energy=-26135.65556306059 free_energy=-26135.65556306059 dipole="1.4913385799499683 -0.672811020399533 1.1655973687851082" pbc="F F F"
C        0.95620390      -0.77152148       0.12348761      -1.29634061      -0.13424550      -2.30118310
Cl      -1.84400108       0.68172385      -1.73310352       0.07922678      -0.05784326       0.05853886
H        1.72586073      -0.47919936      -0.60223970      -0.18382848       0.26100180       0.22352379
H       -0.04265375      -0.28874318      -0.18128464       1.34140404      -0.73863574       0.42714532
H        0.93415199      -1.86329024       0.07869163      -0.43193572       0.07478643      -0.03251694
Cl       1.44560156      -0.34550306       1.71130554       0.49147399       0.59493627       1.62449208
6
Properties=species:S:1:pos:R:3:forces:R:3 energy=-26135.58368609296 free_energy=-26135.58368609296 dipole="1.325490595570117 -0.8270862563789704 1.1591191665564238" pbc="F F F"
C        0.70912674      -1.18203036       0.29891917      -1.10133296       0.87152852      -2.03106176
Cl      -1.72297348       0.75138517      -1.67675577       0.08630828      -0.08734830       0.06253228
H       -0.10795099      -0.51636543      -0.21265233       1.02331595      -1.54530982       0.91120593
H        0.43804947      -2.15132491       0.68493366      -0.83048894      -0.07716985       0.38032040
H        1.44812175      -1.43905008      -0.46211704       0.26782600       0.48082996      -0.01889870
Cl       1.43214789      -0.23412252       1.57518838       0.55437167       0.35746950       0.69590185
6
Properties=species:S:1:pos:R:3:forces:R:3 energy=-26135.64174169536 free_energy=-26135.64174169536 dipole="0.6397279856966541 1.5087093023796339 0.8731058984905937" pbc="F F F"
C        0.67534336       0.52429492       1.26024718       0.07703200      -2.76359978      -0.53780374
Cl      -0.70298915      -2.09951127      -0.81343286       0.05922535       0.01503362       0.08347570
H        0.04374148       0.52984155       2.13233385      -0.32423852       0.25780943       0.33036263
H        1.71801637       0.47862917       1.56544831       0.11207020       0.09137650       0.01361800
H        0.41495509      -0.41425300       0.65109512       0.28397941       1.18406708       0.71005312
Cl       0.41227897       1.90497593       0.26278414      -0.20806844       1.21531317      -0.59970571
6
Properties=species:S:1:pos:R:3:forces:R:3 energy=-26135.640249880373 free_energy=-26135.640249880373 dipole="1.4961904301067943 0.6063460939306915 -0.8204542747237188" pbc="F F F"
C        1.38057634      -0.38592219      -0.45249388      -0.67051452      -1.63071380      -0.89231496
Cl      -1.72174621      -1.10747664       1.08677078       0.04822485      -0.05462084      -0.01856268
H        0.41111655      -0.76567968      -0.04257641       0.68865888       0.20921845      -0.12345088
H        2.19587257      -0.50808923       0.22787975       0.34489202       0.44036638       0.91751097
H        1.72041786      -1.01431772      -1.31997616      -0.68846996       0.83920102       0.28530244
Cl       1.13093863       1.30329336      -0.90119521       0.27720872       0.19654879      -0.16848490
6
Properties=species:S:1:pos:R:3:forces:R:3 energy=-26135.59414870819 free_energy=-26135.59414870819 dipole="-0.10393566470538862 -1.7123994655928485 -0.5238560442516875" pbc="F F F"
C       -0.81839753      -0.99543802      -0.77844231      -0.03536265       2.11499543       1.09900697
Cl      -0.21103928       2.25716731       0.49059197      -0.05171975      -0.02977329      -0.06743115
H       -0.98752333      -1.25526723      -1.79112817       0.31327993       0.01754464      -1.29517146
H       -0.65576918       0.13956361      -0.56388826      -0.44838306      -1.78120348      -0.41224910
H       -1.67271120      -1.39871715      -0.26434227      -0.43875110       0.17012953       0.59812365
Cl       0.58261346      -1.84840167      -0.15236393       0.66093662      -0.49169283       0.07772108
6
Properties=species:S:1:pos:R:3:forces:R:3 energy=-26135.5803377484 free_energy=-26135.5803377484 dipole="1.5140170746874109 0.12958658593532715 1.1936659858586582" pbc="F F F"
C        1.02388660       0.86685131       0.46249604       0.64861365       0.65630809      -0.26472421
Cl      -1.87700796       0.20710285      -1.63300781       0.08399362       0.09639354       0.02293709
H        0.68937548       1.60951311       1.19912475       0.60014684       0.02993232      -0.24463457
H        0.20930225       0.81376278      -0.27118324      -0.18870619      -1.19126007       0.24898286
H        1.94209248       1.13628904      -0.12495186      -0.70336801       0.00693747       0.94782709
Cl       1.44932395      -0.60201942       1.45347456      -0.44067991       0.40168865      -0.71038825
6
Properties=species:S:1:pos:R:3:forces:R:3 energy=-26135.57754531828 free_energy=-26135.57754531828 dipole="-1.5190449223051665 -0.8597742677026443 -0.7843050962443527" pbc="F F F"
C       -0.88170584      -0.21418003      -1.33190772       0.88801375       0.55906882      -0.88336859
Cl       1.91599465       1.21158608       0.63103561      -0.06863827      -0.02610116      -0.11040486
H       -0.56395960      -0.81423782      -2.21245762      -0.50830012       0.16109258       0.60594249
H        0.00190997       0.22849252      -0.87792771       0.23483715       0.56106347      -0.24933256
H       -1.64896947       0.51645639      -1.57335377       0.29095775       0.23527709      -0.41739745
Cl      -1.55439024      -1.13704843      -0.04715430      -0.83687026      -1.49040079       1.05456098
6
Properties=species:S:1:pos:R:3:forces:R:3 energy=-26135.686391675317 free_energy=-26135.686391675317 dipole="-1.2418078190884385 1.5146022594847632 -0.4441898598550861" pbc="F F F"
C       -0.19483655       1.10611195      -0.74035278       1.64853159      -0.78196900       0.78769148
Cl       1.82409521      -1.81729814       0.34439327      -0.03599126       0.12484292      -0.04895007
H       -0.35859903       0.91437830      -1.78341315       0.16516848      -0.00516906      -0.53910133
H        0.42238127       0.27101543      -0.27568420      -1.08948076       0.56678186      -0.37454563
H        0.35447894       2.02203861      -0.55268857       0.15075203       0.21829792      -0.36572257
Cl      -1.76997463       1.35132910      -0.01928587      -0.83898008      -0.12278465       0.54062812
6
Properties=species:S:1:pos:R:3:forces:R:3 energy=-26135.650328944095 free_energy=-26135.650328944095 dipole="1.2829093088429928 -0.8222093269266041 1.140168703571138" pbc="F F F"
C        0.70141831      -1.19918939       0.26638064      -0.76081656       1.27048761      -0.66960430
Cl      -1.68110080       0.71265183      -1.64709155       0.06107568      -0.05885719       0.00614547
H        0.11932786      -0.49384293      -0.36684343      -0.02392568      -0.65369804       0.27520284
H        0.10531155      -1.94066252       0.73287662      -0.98868053      -0.44908095       0.54082063
H        1.38813261      -1.75117292      -0.33888287       1.18547597       0.10801132      -0.20569904
Cl       1.39759137      -0.18733088       1.55606572       0.52687112      -0.21686274       0.05313440
6
Properties=species:S:1:pos:R:3:forces:R:3 energy=-26135.573789570943 free_energy=-26135.573789570943 dipole="0.9692604144893211 1.428496480570406 0.749600804916976" pbc="F F F"
C        0.06251301       1.34059994       0.13802690      -2.33810625      -0.71482698      -2.25481051
Cl      -1.45168751      -1.61650509      -1.10007208      -0.02290461       0.04916455       0.01664619
H       -0.54548056       0.39522521       0.00889775       0.49092683       0.90309436       0.28070282
H        0.25666864       1.68590699      -0.88584635       0.66507450      -0.36322451       0.10580308
H       -0.50933958       2.16038483       0.52182555      -0.48982195       0.28362488       0.88430956
Cl       1.45320212       1.04168435       1.06340418       1.69483148      -0.15783230       0.96734886
6
Properties=species:S:1:pos:R:3:forces:R:3 energy=-26135.5658685614 free_energy=-26135.5658685614 dipole="-1.3640709072900024 1.1608284803854683 1.0116477799942165" pbc="F F F"
C       -0.26653117       1.11255375       0.50948060       2.74550690       1.65197449       0.61716979
Cl       1.90781665      -1.23145851      -1.28241797      -0.05751177       0.08363891       0.01079459
H       -0.22400737       2.10896221       0.04906054      -0.37687505      -0.08524728       0.06579092
H        0.05693510       0.41859484      -0.25186732       0.47488920      -0.61898999       0.18138396
H        0.41219887       1.20523268       1.42519963      -0.60051996      -0.63265285      -1.48412202
Cl      -1.82448186       0.74836866       1.07504015      -2.18548932      -0.39872328       0.60898277
6
Properties=species:S:1:pos:R:3:forces:R:3 energy=-26135.546763138504 free_energy=-26135.546763138504 dipole="1.4714616006954406 -0.6439407294859025 0.9196415751675794" pbc="F F F"
C        1.25658344      -1.01886134      -0.03750570      -2.96937072      -1.36545454      -0.84415656
Cl      -1.72682735       0.55312576      -1.41745533       0.05730083      -0.10780405      -0.02341437
H        0.27293153      -0.82821595      -0.60100113       1.48116733       0.43973242       0.53047087
H        1.19815822      -2.11569531       0.11996343       0.40701213       0.53962720       0.53810401
H        2.12471402      -0.80189922      -0.60400678       0.79090350       0.52093575      -0.51489069
Cl       1.19883316      -0.10141009       1.46101544       0.23298692      -0.02703677       0.31388673
6
Properties=species:S:1:pos:R:3:forces:R:3 energy=-26135.548497623546 free_energy=-26135.548497623546 dipole="0.5814298331264192 1.8120874348834082 0.058272559443623105" pbc="F F F"
C       -0.43918818       1.55578622      -0.04902016      -1.84522856      -1.02365400      -1.55567538
Cl      -1.05334995      -2.10135808      -0.09963491      -0.03524400       0.13000552      -0.03036345
H       -0.77935764       2.18478714      -0.93004471       0.72096529      -0.41980881       1.09532513
H       -0.81529201       1.93608572       0.89150300      -0.45418838      -0.00155688       0.02241536
H       -0.76473969       0.49494677      -0.26830698      -0.09205122       0.98111411       0.58040534
Cl       1.26924145       1.44298588       0.12496875       1.70574688       0.33390006      -0.11210700
6
Properties=species:S:1:pos:R:3:forces:R:3 energy=-26135.649913125028 free_energy=-26135.649913125028 dipole="-1.4189822188188321 -1.4171210343054188 -0.41653209014686854" pbc="F F F"
C       -0.26843545      -1.05844838      -0.45445922       2.63648529       0.80073485      -0.78468805
Cl       2.04962932       1.67327668       0.43476050      -0.07904319      -0.09908788      -0.04781709
H        0.20506279      -1.83595928       0.13171097       0.18558010      -0.01293149       0.33962027
H        0.20746635      -0.04852950      -0.18767883      -0.98513972      -1.17878279      -0.14888020
H        0.00288962      -1.29173927      -1.50701771      -0.36846409       0.30035137       0.49350084
Cl      -1.97049149      -1.22434406      -0.23634022      -1.38941840       0.18971594       0.14826424
6
Properties=species:S:1:pos:R:3:forces:R:3 energy=-26135.602892587354 free_energy=-26135.602892587354 dipole="1.0384426918640912 0.16777899753043898 1.4401176005304603" pbc="F F F"
C        0.18496365       0.76006439       1.32893791      -1.83509831      -2.05068385       0.01453964
Cl      -1.54485193       0.08287830      -1.68302464      -0.02522406       0.04821356       0.07247117
H        0.46403008       1.72991957       1.07752296       1.04021318       1.69613105      -0.33396197
H       -0.13321086       0.69885400       2.39133623      -0.05896009       0.04872773      -0.77889495
H       -0.58446365       0.46390854       0.55730924       0.34479068       0.20020469       0.96182265
Cl       1.48939566      -0.42265142       1.11827849       0.53427860       0.05740682       0.06402346
6
Properties=species:S:1:pos:R:3:forces:R:3 energy=-26135.627095915606 free_energy=-26135.627095915606 dipole="-1.5197127958042647 -1.1635310783599437 -0.4573794986388338" pbc="F F F"
C       -1.31052399      -0.22824982      -0.99381332       1.62550451       0.07382069       0.50434430
Cl       1.73593085       1.68329096       0.24233139      -0.12564550      -0.02534438      -0.10554022
H       -2.17682407       0.39265313      -0.78372412      -0.29953016      -0.39595042      -0.13141503
H       -1.22089330      -0.63989639      -2.00482337      -0.51610900       0.04060454       0.25217722
H       -0.40859172       0.39417883      -0.81395831      -0.31937264      -0.27935744       0.08079940
Cl      -1.18367518      -1.61013447       0.19682285      -0.36484721       0.58622701      -0.60036566
6
Properties=species:S:1:pos:R:3:forces:R:3 energy=-26135.57565087971 free_energy=-26135.57565087971 dipole="-0.2433567757318949 -1.8203351321485857 0.6060711736695505" pbc="F F F"
C       -0.18507248      -0.90371962       1.22741993       2.10205341       1.39413560       0.88737972
Cl       0.30034248       2.37190060      -0.39741328      -0.02316809      -0.07186527       0.10106942
H       -0.93820862      -0.99819538       1.99130573      -0.92746381      -0.53833188      -0.30192554
H       -0.16187459       0.12605004       0.82960250      -0.19922272      -0.27101099      -0.03971916
H        0.77375567      -0.99969214       1.82388509      -0.73973550      -0.27298749      -1.04181971
Cl      -0.22835817      -2.01248203      -0.15052727      -0.21246328      -0.23993997       0.39501527
6
Properties=species:S:1:pos:R:3:forces:R:3 energy=-26135.469508005954 free_energy=-26135.469508005954 dipole="-1.6383635420337999 -0.7144729363372893 -0.6723338687172485" pbc="F F F"
C       -0.79139732      -0.19171565      -1.11261561       2.31279092       2.72458901      -0.78885022
Cl       2.18428030       1.02614117       0.56444280      -0.06867118      -0.01241933      -0.07416410
H       -0.44787602      -0.83258448      -1.91532127       0.06142381      -0.35326439      -0.03878943
H        0.13541211       0.27245745      -0.56152368      -1.61261584      -0.79091576      -0.82097892
H       -1.44304857       0.57890671      -1.54565933       0.80618851       0.26165532      -0.26988522
Cl      -1.86622587      -0.96171898      -0.07309413      -1.49911621      -1.82964484       1.99266789
6
Properties=species:S:1:pos:R:3:forces:R:3 energy=-26135.5749717661 free_energy=-26135.5749717661 dipole="-0.9219176917652133 -1.1801959260166657 1.2324314281089506" pbc="F F F"
C       -0.33870324      -0.32246670       1.51623036       0.02109788       1.37169484      -0.19471485
Cl       1.24836116       1.64265511      -1.21524643      -0.02948288      -0.04481639       0.12390663
H        0.28616676       0.15639239       0.77893410       0.82098401       0.53425718       0.11815206
H        0.20270213      -0.82722839       2.29812207       0.21360045       0.17086885       0.44459424
H       -1.04926799       0.45396404       1.85676308       0.21708603      -0.66070246       0.14078134
Cl      -1.11766873      -1.52723185       0.56123423      -1.24328549      -1.37130202      -0.63271941
6
Properties=species:S:1:pos:R:3:forces:R:3 energy=-26135.656604905515 free_energy=-26135.656604905515 dipole="1.363621312510958 -0.6701744489239742 1.2755871007140915" pbc="F F F"
C        0.56537150      -0.70333197       0.34539752      -0.37554830       0.17578315      -1.60156887
Cl      -1.82982758       0.68188851      -1.83165071       0.06771932      -0.02741518       0.03505411
H       -0.02911263       0.14497285      -0.05869737       0.07747276      -0.42147227       0.81983447
H        0.00260791      -1.58903516       0.53936297      -1.00152024      -0.21872167       0.62910890
H        1.14066474      -1.03811153      -0.50017605       0.88422751       0.18526078      -0.33868136
Cl       1.60659062      -0.37300977       1.71517954       0.34764894       0.30656519       0.45625276
6
Properties=species:S:1:pos:R:3:forces:R:3 energy=-26135.469058682105 free_energy=-26135.469058682105 dipole="-0.056673749987220044 0.11440603431581936 1.8564134564453434" pbc="F F F"
C       -0.64815077      -0.34533585       1.06119802      -2.87623703      -1.28347034      -2.66808815
Cl      -0.16469669      -0.33235701      -2.41719915      -0.01245097      -0.05905616      -0.01288539
H       -1.69310461       0.04768445       1.21791528       1.11014971      -0.14267170      -0.36172967
H       -0.70465970      -1.39589372       1.26356909       0.19895541      -0.74243606       1.04882426
H       -0.39442685      -0.43097911      -0.03025368      -0.14565495       1.09685521       0.59913374
Cl       0.46369436       0.49995224       1.98794979       1.72523783       1.13077905       1.39474521
6
Properties=species:S:1:pos:R:3:forces:R:3 energy=-26135.607670791444 free_energy=-26135.607670791444 dipole="0.0938263886897759 -1.5513160562891934 -1.1278087913697574" pbc="F F F"
C       -0.57299720      -1.34403965      -0.28312568      -1.12936881       2.76447084       0.16000202
Cl      -0.39199063       1.79828557       1.62710185      -0.02117190      -0.12004281      -0.02542635
H       -0.40656015      -2.12349889       0.38873130       0.56443409      -1.67334465       0.81735519
H       -1.56309329      -1.47312905      -0.77657117       0.67179332       0.32275090       0.45392070
H       -0.47107258      -0.38437967       0.33324928      -0.63293186      -0.95184631      -0.87046970
Cl       0.65553143      -1.22970684      -1.52962231       0.54724517      -0.34198796      -0.53538187
6
Properties=species:S:1:pos:R:3:forces:R:3 energy=-26135.681216075955 free_energy=-26135.681216075955 dipole="0.12552988010098048 -1.6019894261975394 -1.125986469630688" pbc="F F F"
C       -0.55214019      -1.24490546      -0.28562347      -1.43507781       2.41591988       0.19401326
Cl      -0.44341458       1.90215920       1.60179587      -0.02454611      -0.11825531      -0.02289466
H       -0.60375971      -2.15666261       0.23764142      -0.08844541      -1.17253115       0.69443729
H       -1.53339676      -1.02930695      -0.79134594       0.95443229      -0.31581994       0.38834325
H       -0.36614471      -0.37603961       0.41623869       0.05153172      -0.78453952      -0.74331752
Cl       0.70166799      -1.37908262      -1.50111353       0.54210532      -0.02477396      -0.51058162
6
Properties=species:S:1:pos:R:3:forces:R:3 energy=-26135.64544681858 free_energy=-26135.64544681858 dipole="1.3266592485139512 -0.8858793182311445 1.1572799312553503" pbc="F F F"
C        0.76216225      -1.31535216       0.28727249      -0.51481057       1.08464692      -0.45930857
Cl      -1.69923836       0.74737015      -1.65120962       0.07759708      -0.14079739       0.03330671
H        0.05116287      -0.81288248      -0.42067852       0.84830370       0.21312995       0.47487317
H        0.15009113      -2.04705086       0.78713513       0.27105064      -0.61678962       0.31960354
H        1.66947912      -1.67433192      -0.19512959      -0.34570213      -0.38184623      -0.09755299
Cl       1.38781298      -0.17277963       1.54900574      -0.33643870      -0.15834363      -0.27092187
6
Properties=species:S:1:pos:R:3:forces:R:3 energy=-26135.36144576865 free_energy=-26135.36144576865 dipole="1.33548864594455 -0.8794385865115628 1.1482250387150774" pbc="F F F"
C        0.82058393      -1.38803080       0.33358916      -2.61879944       1.64374199       1.61746853
Cl      -1.64913722       0.70105803      -1.60898885       0.12079522      -0.11659277       0.02811639
H        0.27869390      -0.76197029      -0.41688095      -0.33101856      -1.29789877       0.25988020
H        0.27673182      -2.13542614       0.99050817       0.37510113       0.77324975      -1.47854395
H        1.73901028      -1.69051418       0.00991946       2.20248222      -1.52491580      -1.27165997
Cl       1.30586995      -0.10031750       1.47937096       0.25143944       0.52241559       0.84473881
6
Properties=species:S:1:pos:R:3:forces:R:3 energy=-26135.57853292887 free_energy=-26135.57853292887 dipole="-1.2759754527562028 0.305570281378345 -1.316738381810742" pbc="F F F"
C       -1.42823431       0.14818550      -0.26696482       0.07340571      -0.09277704       1.68494990
Cl       1.32951946      -0.40825938       1.89480998      -0.06772579      -0.02643853       0.04215115
H       -1.87874108       1.09390856      -0.03379889      -0.40626591       0.31749811       0.45491650
H       -0.75315310      -0.17858597       0.53495287       0.65480490       0.51160812      -0.37681568
H       -2.13544006      -0.63533837      -0.31301313      -1.23793717      -0.69347762      -0.32365133
Cl      -0.71005556       0.35009068      -1.80970791       0.98371827      -0.01641304      -1.48155053
6
Properties=species:S:1:pos:R:3:forces:R:3 energy=-26135.66344553133 free_energy=-26135.66344553133 dipole="0.6365137797241829 1.6805379041862536 0.8023203977923072" pbc="F F F"
C        0.50047887       0.52439498       0.89963400      -0.87401087      -2.80926315       0.00190765
Cl      -0.75725746      -2.33880103      -0.82221962       0.02957572       0.04385965       0.02904624
H       -0.23785636       0.39318455       1.68883544      -0.02385390       0.02623634       0.09433311
H        1.46550984       0.23876488       1.28102276       0.42645763      -0.25018233       0.07268804
H        0.18131417      -0.15777899       0.06777281       0.38041497       0.51498018       0.56416119
Cl       0.54762443       2.14764527       0.43103665       0.06141646       2.47436931      -0.76213624
6
Properties=species:S:1:pos:R:3:forces:R:3 energy=-26135.654622961167 free_energy=-26135.654622961167 dipole="0.9098717314068474 1.6425583948707363 0.6685336524309761" pbc="F F F"
C        1.00686920       0.57141972       0.98523890      -1.31644798      -0.69456659      -0.02327059
Cl      -0.93019220      -2.23241930      -0.55960724       0.08998289       0.06797299       0.07859186
H        2.04709635       0.40176861       0.99860523       1.40782431       0.12899863      -0.55033001
H        0.47274584      -0.26455232       0.52376048       0.05021852      -0.16360076       0.13698477
H        0.72033991       0.70088323       2.00673941      -0.46688216      -0.03030049       0.70640846
Cl       0.49691690       2.01498273       0.12544525       0.23530442       0.69149621      -0.34838448
6
Properties=species:S:1:pos:R:3:forces:R:3 energy=-26135.622053494753 free_energy=-26135.622053494753 dipole="1.011491855812415 1.4717108489825654 0.9033533450483244" pbc="F F F"
C       -0.10811912       1.32177263       0.69467803      -0.02968954      -2.31714261      -0.65248546
Cl      -1.62953970      -1.64879680      -1.08528928       0.03347473       0.13345539       0.08816023
H       -0.48421617       0.32471748       0.26226672       0.20407579       1.41253614       0.68045942
H       -0.32220014       2.10682057       0.00561023       0.13576613       0.57330398      -0.65452241
H       -0.57900933       1.57767441       1.64301645       0.48238867      -0.27070495       0.26011640
Cl       1.70556587       1.08696049       0.79558664      -0.82601577       0.46855205       0.27827182
6
Properties=species:S:1:pos:R:3:forces:R:3 energy=-26135.658043551277 free_energy=-26135.658043551277 dipole="1.4947248605927077 -0.3778278816374966 0.8968990801507598" pbc="F F F"
C        1.51886183      -0.49450912      -0.13221869      -0.46416789       0.20546036      -0.92375929
Cl      -1.66268329       0.38576948      -1.44865735       0.07106469      -0.03659629      -0.05513424
H        1.95394935      -1.48790059      -0.30383354      -0.31839312       0.05164508       0.54134645
H        2.28180613       0.23661117      -0.38872551      -0.04471895       0.17392691      -0.04551841
H        0.59906436      -0.34206809      -0.73857465       0.50649486      -0.07828170       0.11759577
Cl       1.01059449      -0.17291607       1.53414851       0.24972041      -0.31615435       0.36546972
6
Properties=species:S:1:pos:R:3:forces:R:3 energy=-26135.617357141342 free_energy=-26135.617357141342 dipole="-0.5181387872098953 -0.5073383845901978 -1.7340748700019712" pbc="F F F"
C        0.42502435      -0.43667924      -1.18344974       1.33442976       1.34200335       1.95399119
Cl       0.99299783       0.58328815       2.17880089       0.01140737      -0.01541459      -0.04494481
H        0.48227403       0.04356567      -0.15846162       0.27144841      -0.10304730      -1.12885455
H        1.03807405       0.02627283      -1.94397732       0.23602879       0.39227046       0.02038629
H        0.78037420      -1.41799513      -1.02776130       0.14389631      -1.42475763      -0.02850664
Cl      -1.20242224      -0.39700053      -1.68882468      -1.99721064      -0.19105429      -0.77207148
6
Properties=species:S:1:pos:R:3:forces:R:3 energy=-26135.507491166893 free_energy=-26135.507491166893 dipole="-1.1628613051146595 0.4796314871281058 -1.4522411615516921" pbc="F F F"
C       -1.34894317      -0.27010469      -0.69417005       0.85706624       0.65737696       3.05825910
Cl       1.20094361      -0.83285424       1.93522961      -0.11435488      -0.01395360      -0.03967503
H       -2.20948636       0.16797448      -0.21682229      -0.91841818      -0.19894287      -0.40523827
H       -0.69948486      -0.41484169       0.19327850       0.26828514      -0.03450594      -0.46218632
H       -1.45428031      -1.23297192      -1.10903071      -0.44630805      -0.81085591      -1.15072652
Cl      -0.61983462       0.96644818      -1.66783013       0.35372973       0.40088136      -1.00043296
6
Properties=species:S:1:pos:R:3:forces:R:3 energy=-26135.569833615536 free_energy=-26135.569833615536 dipole="0.40482542657401754 1.8058759009264431 -0.16261064595479757" pbc="F F F"
C       -0.06321507       1.27353810      -0.92380884      -1.37060715      -0.84169016       0.36645538
Cl      -0.65357623      -2.20689304      -0.14660684      -0.00907022       0.07544864      -0.06406683
H       -0.97779898       1.83604231      -0.95311414      -0.57613497       0.17665032      -0.26901607
H       -0.26874611       0.21762760      -0.79742938      -0.25079736      -0.50518054      -0.63465707
H        0.53246219       1.50616493      -1.75867306       0.95505447       0.19794517      -1.02236669
Cl       0.69529898       1.67417711       0.55938987       1.25155522       0.89682657       1.62365129
6
Properties=species:S:1:pos:R:3:forces:R:3 energy=-26135.548909213772 free_energy=-26135.548909213772 dipole="0.7457185968553443 -0.24837072980198732 -1.7689325994366143" pbc="F F F"
C       -0.15414565      -0.70512240      -1.36397945      -1.16602880      -0.07272292       2.22225767
Cl      -1.20538529       0.09077989       2.10222009      -0.01367710      -0.04266939      -0.11959375
H       -0.06582063      -1.77319560      -1.11528379       0.59460965       0.28688371      -0.63956460
H       -0.75338117      -0.48249845      -2.20861707      -0.70397145      -0.22711408      -0.88719415
H       -0.62663066      -0.29377966      -0.45309798      -0.14852154      -0.09368434      -0.28780796
Cl       1.29872359       0.22061911      -1.53268633       1.43758924       0.14930703      -0.28809721
6
Properties=species:S:1:pos:R:3:forces:R:3 energy=-26135.63071121766 free_energy=-26135.63071121766 dipole="1.4261518228237509 -0.8343962447477251 1.3020901739982262" pbc="F F F"
C        0.70740995      -1.05206008       0.33999317      -0.15400598       0.40734521       0.21959252
Cl      -1.83819694       0.75348238      -1.81313126       0.10984569      -0.08299481       0.07826878
H        0.10544002      -0.32518219      -0.21558174       0.11160626      -0.09932078      -0.09475513
H        0.09409737      -1.72723566       0.89756468      -0.64958840      -0.87863846      -0.51657735
H        1.50192200      -1.51737974      -0.21743040      -0.18130380      -0.39485275      -0.58580974
Cl       1.55013567      -0.29552329       1.68472711       0.76344623       1.04846159       0.89928092
6
Properties=species:S:1:pos:R:3:forces:R:3 energy=-26135.387277785816 free_energy=-26135.387277785816 dipole="1.6640135430245693 -0.4433448453431061 0.7686317367056088" pbc="F F F"
C        1.67808300      -0.53005442      -0.21761155       0.46341318      -0.59410731      -4.10396643
Cl      -1.80495698       0.45689441      -1.18348416       0.12674042      -0.03164864      -0.07154274
H        0.87974247      -0.23140457      -0.98465507       0.94075012      -0.51082104       0.99986025
H        1.95569555      -1.60717137      -0.36101186      -0.38982223       0.81526961       0.19075447
H        2.58803916       0.05942794      -0.42261537      -0.29083610      -0.10402003       0.16528245
Cl       1.08218350      -0.22671486       1.30749434      -0.85024539       0.42532741       2.81961200
6
Properties=species:S:1:pos:R:3:forces:R:3 energy=-26135.54883280205 free_energy=-26135.54883280205 dipole="1.4791599892614329 -0.37347594889573077 1.4706373971356204" pbc="F F F"
C        0.47528296       0.21454533       1.42289935      -2.19531026       1.94049942      -2.26367011
Cl      -2.00053341       0.63954671      -1.59025764       0.09032116       0.00169710       0.14436251
H       -0.03295595      -0.26480736       2.22296290      -0.48927139      -0.19407092       0.80431416
H       -0.21539547       0.27678056       0.50239761       0.71087648      -0.29054227       1.29867714
H        0.69676066       1.28543059       1.62475496       0.38309025      -0.84645210       0.22790265
Cl       1.82675004      -0.74912886       0.98446468       1.50029377      -0.61113123      -0.21158637
6
Properties=species:S:1:pos:R:3:forces:R:3 energy=-26135.556134274295 free_energy=-26135.556134274295 dipole="0.34428331868029793 -1.7909915117996626 0.7136909293682394" pbc="F F F"
C        0.68970861      -0.97462482       1.25055621       1.39663841       0.76620792      -0.39144484
Cl      -0.21996263       2.23443840      -0.53739220       0.07973875      -0.06184812       0.11471200
H        0.16237521      -1.09827605       2.15342763      -0.59772633      -0.17539517       1.18829245
H        0.73017067       0.06298304       0.95803241      -0.16060991       0.57562878      -0.05361391
H        1.70342240      -1.35408681       1.30906482       0.21350002      -0.08083682       0.34585168
Cl      -0.08753600      -1.83628005      -0.01201033      -0.93154093      -1.02375660      -1.20379738
6
Properties=species:S:1:pos:R:3:forces:R:3 energy=-26135.534204117255 free_energy=-26135.534204117255 dipole="1.679562534276932 0.1311254120965584 1.3206776949726975" pbc="F F F"
C        1.02973241       0.74991760       0.52759138      -2.03719430       0.24723849      -2.77895455
Cl      -2.04754809       0.13253268      -1.74258452       0.12545160       0.05821259       0.09410317
H        0.90978403       1.62695738       1.09583806       0.00097738       1.30867767       0.59824097
H        0.03468999       0.53839185      -0.00478717       1.17211259      -0.20550657       0.90516325
H        1.75709483       0.85632298      -0.26023873       0.24671948       0.48869928      -0.31349482
Cl       1.62184154      -0.47253567       1.54020487       0.49193325      -1.89732146       1.49494199
6
Properties=species:S:1:pos:R:3:forces:R:3 energy=-26135.59554847947 free_energy=-26135.59554847947 dipole="1.8366304966349933 0.39597546902125663 -0.9029320062156153" pbc="F F F"
C        1.58254229       0.07830535       0.15943815      -1.31420202       0.79160187       2.07576838
Cl      -2.03704345      -0.56328415       1.40491012       0.17229880       0.02503751       0.01049795
H        0.59378553      -0.00430096       0.73021794       1.03912245       0.14958010      -1.01655685
H        2.24241881       0.79045729       0.66736305      -0.25028790       0.19881347      -0.20562544
H        2.08693004      -0.84326211       0.20301044       0.48867500      -1.42980874      -0.13158579
Cl       1.36086757       0.53837687      -1.50444208      -0.13560633       0.26477579      -0.73249826
6
Properties=species:S:1:pos:R:3:forces:R:3 energy=-26135.537782565374 free_energy=-26135.537782565374 dipole="0.7100954475113166 1.1631440201561123 1.5665422467972265" pbc="F F F"
C        0.75502448       0.05036098       1.19991331      -2.70045095      -0.39702372      -2.44679042
Cl      -0.73873512      -1.74299072      -1.82230419       0.04171005       0.04222558       0.13267356
H        1.76077810      -0.02815638       0.96347347       1.87966920      -0.65136122      -0.32250907
H        0.08158212      -0.35074283       0.38184702       1.10944782       0.28406097       0.40717988
H        0.42114821      -0.45177370       2.04934888      -0.03389265      -0.70912656       1.83970945
Cl       0.41855979       1.74954735       1.31922984      -0.29648348       1.43122496       0.38973659
6
Properties=species:S:1:pos:R:3:forces:R:3 energy=-26135.452835481054 free_energy=-26135.452835481054 dipole="1.9770492850361325 0.0772642347500675 0.8906350036593808" pbc="F F F"
C        1.40775905      -0.28502863      -0.10458185      -1.69939487      -2.34037478      -2.41798488
Cl      -2.27102251      -0.22773557      -1.32265117       0.14270008      -0.00211606       0.00963935
H        0.90680061      -1.28047920       0.01544984       0.67354853       0.67480364      -0.28264682
H        2.31878995      -0.34882715      -0.67075975       0.44240209      -0.21093271      -0.29657076
H        0.67499981       0.29313218      -0.64001126      -0.32909696       0.37484807      -0.32483457
Cl       1.68314130       0.36230095       1.39491679       0.76984114       1.50377185       3.31239767
6
Properties=species:S:1:pos:R:3:forces:R:3 energy=-26135.53550554775 free_energy=-26135.53550554775 dipole="0.712211038202126 -1.040486847335715 1.5504798774490982" pbc="F F F"
C       -0.02279475      -1.25826340       0.72808726      -1.79784164       1.14332706      -2.25097178
Cl      -1.07725812       1.04240909      -2.03713474       0.02261464      -0.11353960       0.05809476
H       -0.94471854      -1.41622301       1.26725238      -0.19854230      -0.34276940       0.09717584
H        0.33184554      -2.10533751       0.20509961       0.71023362      -1.49023416       0.24799611
H       -0.24840327      -0.61350470      -0.15694891      -0.07917061       0.26963485       0.82725317
Cl       1.10947122      -0.49851213       1.75304497       1.34270629       0.53358125       1.02045190
6
Properties=species:S:1:pos:R:3:forces:R:3 energy=-26135.570310699677 free_energy=-26135.570310699677 dipole="-0.5690247461249269 1.6206316381658996 1.2867588899545297" pbc="F F F"
C        0.25042689       1.38430087       0.42125818       1.82614213      -0.86197631       2.65764127
Cl       0.96359390      -1.77846163      -1.74895542      -0.00817625       0.16223667       0.07548703
H        0.43907867       0.46276944      -0.11623020       0.23154252      -0.56060140       0.24058635
H        1.12765935       1.76200843       1.06031983      -1.11825083      -0.74854354      -1.26229603
H       -0.01820243       2.08046308      -0.27933325      -0.78546260       2.06368313      -1.61126613
Cl      -1.09247405       1.18702240       1.58732478      -0.14579498      -0.05479855      -0.10015248
6
Properties=species:S:1:pos:R:3:forces:R:3 energy=-26135.482739685376 free_energy=-26135.482739685376 dipole="0.8288713388593778 -0.25008659907831643 1.8136243369563019" pbc="F F F"
C       -0.22000515      -0.04676105       1.68455478      -1.32977297      -0.28837320       2.45043787
Cl      -1.29313991       0.34276984      -1.97447357      -0.01134834      -0.00378210       0.16682208
H       -0.69282080       0.09937218       0.74331142      -1.15431877       0.13803193      -0.65641174
H       -0.34875958       0.82321925       2.38944070       0.36498475      -0.59327321      -0.94428685
H       -0.58415706      -0.94368259       2.27649741       0.17056712       0.89724255      -1.02202912
Cl       1.41390789      -0.32632677       1.24991191       1.95988821      -0.14984597       0.00546776
6
Properties=species:S:1:pos:R:3:forces:R:3 energy=-26135.662025532853 free_energy=-26135.662025532853 dipole="0.4554658260962592 -1.3304894506268603 1.3982163573199229" pbc="F F F"
C        0.90225516      -1.35965487       0.41056074      -0.64363872      -0.03534168      -1.06127063
Cl      -0.29424096       1.40800438      -1.92243363       0.08175794      -0.14130748       0.02904280
H        0.62944373      -0.72905042      -0.46059189       0.23893140      -0.04639500       0.44487186
H        0.63502298      -2.40418445       0.15811070       0.33716675       0.44396167       0.36823136
H        1.94601159      -1.23218219       0.68292547       0.04021296      -0.13884454      -0.03509235
Cl      -0.10274490      -0.82320452       1.77251168      -0.05443033      -0.08207297       0.25421696
6
Properties=species:S:1:pos:R:3:forces:R:3 energy=-26135.4914570545 free_energy=-26135.4914570545 dipole="0.9931484553978983 -0.6404357247609102 1.6153985618672797" pbc="F F F"
C        0.00507456      -0.99798505       1.38021668       0.10115067       0.63206182      -0.53638416
Cl      -1.46015882       0.50127630      -1.78108370      -0.01977995      -0.09155070       0.12966847
H       -0.83655153      -0.38394908       1.18034181      -0.74606971       1.02730440       0.27081376
H        0.02797570      -1.43972035       2.33413939      -0.20396360      -0.53796582       1.27057479
H       -0.10259213      -1.71251333       0.61609624       0.49075716      -1.17916273      -1.03422089
Cl       1.48434801      -0.06259447       1.19599471       0.37790543       0.14931303      -0.10045198
6
Properties=species:S:1:pos:R:3:forces:R:3 energy=-26135.590019102478 free_energy=-26135.590019102478 dipole="-1.7543101313327973 -0.7276111925430685 -0.7548387724005531" pbc="F F F"
C       -1.00558970       0.07508298      -1.08773276       1.12320216       2.07787264      -0.83856028
Cl       2.18989626       1.11448433       0.65271162      -0.10044960      -0.00826798      -0.12385539
H       -0.91310279      -0.29543696      -2.09717700       0.05826265      -0.14149813      -0.43904307
H        0.03657588       0.41169732      -0.75940187      -1.37134391      -0.65391910       0.30395753
H       -1.69921038       0.94278809      -1.12906873       0.55746070      -0.40860611       0.17360852
Cl      -1.77594757      -1.17003701      -0.17084163      -0.26713200      -0.86558132       0.92389270
6
Properties=species:S:1:pos:R:3:forces:R:3 energy=-26135.573005873503 free_energy=-26135.573005873503 dipole="-2.0577555069138955 0.18881412026939942 -0.05948595167472457" pbc="F F F"
C       -1.43830743       0.01817028       0.83262686       1.54939553      -0.44411314       0.80515116
Cl       2.42886747      -0.26828347       0.44028197      -0.16485207       0.00336489       0.07730854
H       -0.31843021      -0.10994077       0.90956321      -1.05402631       0.05344068       0.14219665
H       -1.99758352      -0.85414567       1.14015296       0.11615600      -0.27885073       0.42961637
H       -1.79013211       0.89135477       1.34673035       0.02082842       0.37113235       0.62700527
Cl      -1.82479115       0.26419519      -0.81896460      -0.46750157       0.29502595      -2.08127799
6
Properties=species:S:1:pos:R:3:forces:R:3 energy=-26135.582230545202 free_energy=-26135.582230545202 dipole="-0.21545439756233464 0.9902666764323945 1.8569164399131615" pbc="F F F"
C       -1.07822637       0.69339724       1.23770017      -0.11189109      -0.48754540      -1.50091281
Cl      -0.15041744      -1.16738483      -2.18348620      -0.11750234       0.07251481       0.11490073
H       -1.45246936      -0.09942145       1.85628743      -0.38652803      -0.20984761       0.51412448
H       -1.18199668       0.32123643       0.17395126       0.44813490       0.61653780       0.93270281
H       -1.60170976       1.63820466       1.40226449       0.09548432      -0.16337395      -0.00861673
Cl       0.63619014       0.87956271       1.66653331       0.07230225       0.17171436      -0.05219848
6
Properties=species:S:1:pos:R:3:forces:R:3 energy=-26135.44090579445 free_energy=-26135.44090579445 dipole="1.5223578700992428 0.28136369748527384 1.1805946880328635" pbc="F F F"
C        1.37171492       1.13973512       0.79123485       0.92104975       0.42057442       0.16957807
Cl      -1.64790878       0.03563542      -1.39693239       0.03600157       0.13963198      -0.00099706
H        2.16102853       1.27633707       0.06093899       0.37210268      -0.24679815      -0.06461447
H        1.66422806       1.64081127       1.72356171      -0.28893419      -0.11491713      -0.19775432
H        0.50376510       1.53149329       0.33443851      -1.22811558       0.61867357      -0.22875100
Cl       1.06005767      -0.54828956       1.06859918       0.18789577      -0.81716470       0.32253878
6
Properties=species:S:1:pos:R:3:forces:R:3 energy=-26135.629563411683 free_energy=-26135.629563411683 dipole="0.14937866664407826 -1.7813228996393116 -0.8590733433825058" pbc="F F F"
C       -0.70238334      -1.26633873      -0.33715275      -0.39613893       1.53347971       2.16083254
Cl      -0.53585512       2.16888398       1.17241284      -0.04749687      -0.14704153      -0.01967329
H       -0.93745024      -2.05363906       0.40006343      -0.08237134       0.11090038      -0.56793888
H       -1.43218758      -1.20004115      -1.13930966      -0.11210530      -0.00416770       0.11574895
H       -0.65102275      -0.27733939       0.28616937       0.02729090      -1.37260525      -1.41299081
Cl       0.85972401      -1.63942665      -1.04529737       0.61082153      -0.12056561      -0.27597851
6
Properties=species:S:1:pos:R:3:forces:R:3 energy=-26135.516519063018 free_energy=-26135.516519063018 dipole="-1.8115104708540215 -0.6956148454675252 -0.7691678048618086" pbc="F F F"
C       -1.24017886       0.16485351      -1.17001875       0.34592626       0.94101756      -1.66950809
Cl       2.12335243       1.08666176       0.65472152      -0.12217252       0.02310635      -0.10558446
H       -0.90454623      -0.06966009      -2.23247261      -0.84261774      -0.27247725       1.32762172
H       -0.41325541       0.69854677      -0.75481802       0.76075744       0.32341730       0.63322872
H       -2.10657123       0.82731650      -1.14972615      -0.01103517      -0.06889771      -0.34275947
Cl      -1.60579090      -1.18392293      -0.14066770      -0.13085827      -0.94616624       0.15700159
6
Properties=species:S:1:pos:R:3:forces:R:3 energy=-26135.49132897434 free_energy=-26135.49132897434 dipole="1.0591711325965554 -0.0463404806668566 1.6539308327632811" pbc="F F F"
C        0.10303320       0.39643112       1.73911790       0.58070945       1.29939152      -1.68377980
Cl      -1.55116118       0.25987289      -1.73394584       0.01011384       0.05870559       0.18659855
H       -0.15586191      -0.12601922       2.64373195      -0.61465731      -0.49319995      -0.07661456
H       -0.57834802       0.49001601       0.84549852      -0.07964666      -0.47649281       1.26706536
H        0.38468413       1.43216871       2.03414028       0.17952971      -0.66636405      -0.26930616
Cl       1.52619053      -0.44526271       0.98765239      -0.07604903       0.27795969       0.57603662
6
Properties=species:S:1:pos:R:3:forces:R:3 energy=-26135.478950209446 free_energy=-26135.478950209446 dipole="1.4124543750052017 0.14330222316213484 -1.3983660869532974" pbc="F F F"
C        1.32006660       0.94951369      -0.72687764      -2.58950212      -0.09744272      -0.65484624
Cl      -1.52076422       0.21225771       1.74141133       0.07544277       0.10801822      -0.06685509
H        1.48605686       1.67250842      -1.49181233       0.43422848       0.36072465      -0.91863875
H        2.13733021       0.90620020      -0.07420073       0.93538710      -0.24451385       1.18065443
H        0.34161536       1.20404631      -0.29303497       0.63846177       0.03985920       0.73894445
Cl       0.96076303      -0.64152784      -1.44227317       0.50598199      -0.16664550      -0.27925881
6
Properties=species:S:1:pos:R:3:forces:R:3 energy=-26135.584308105572 free_energy=-26135.584308105572 dipole="-1.1866214560625197 0.49776986947428814 -1.4755101778386557" pbc="F F F"
C       -1.33852872      -0.26508167      -0.70069392      -0.87273579      -1.87496302       1.76698015
Cl       1.22131623      -0.83873965       1.93356374      -0.11708902      -0.00358183      -0.06076803
H       -2.28810370       0.09155640      -0.29031856       0.09926253       0.18560871       0.00285660
H       -0.64447428      -0.44480920       0.15690820      -0.38946068      -0.24356949      -0.58100393
H       -1.61437423      -1.22217768      -1.23147180       0.81299936       1.05320178       0.13216493
Cl      -0.63851238       0.97334980      -1.65734834       0.46702361       0.88330385      -1.26022972
6
Properties=species:S:1:pos:R:3:forces:R:3 energy=-26135.50338020223 free_energy=-26135.50338020223 dipole="1.3498031016903635 -0.12670383487128747 1.491980664526887" pbc="F F F"
C        0.56922508       0.47783870       1.70940475      -1.23800755       1.81901193      -0.37031476
Cl      -1.71816658       0.37008739      -1.48179660       0.01182848       0.05766244       0.14888477
H        1.14637736       1.39732549       1.85694974      -0.15761390      -0.06895739      -0.06072503
H        0.30220338       0.09719489       2.67248398       0.04204956      -0.67209495       0.60722427
H       -0.36379188       0.70458085       1.15314413       0.47740399      -0.03295062       0.15326132
Cl       1.49445911      -0.59451657       0.74104345       0.86433942      -1.10267142      -0.47833057
6
Properties=species:S:1:pos:R:3:forces:R:3 energy=-26135.56740280261 free_energy=-26135.56740280261 dipole="-1.3920669561759589 0.3143893841954895 -1.3964547258567788" pbc="F F F"
C       -1.60209994       0.19311317      -0.33098300       2.23012911       0.57404685       1.85549835
Cl       1.41438363      -0.39690523       1.97003876      -0.15922585       0.00985869      -0.03471619
H       -2.06694384       1.15071840      -0.09816631      -0.33041773      -0.24739603      -0.20003596
H       -0.83604659      -0.01325518       0.47206666      -0.32023880       0.48512902      -0.73655046
H       -2.20627160      -0.66852369      -0.27169091      -1.26489283      -0.75434639      -0.54924293
Cl      -0.72628889       0.31814153      -1.86080294      -0.15535391      -0.06729214      -0.33495281
6
Properties=species:S:1:pos:R:3:forces:R:3 energy=-26135.567744450134 free_energy=-26135.567744450134 dipole="-1.9343769501948676 0.670336144312434 -0.2641484700746923" pbc="F F F"
C       -1.13125351       1.37778438      -0.33487240       1.65586587      -1.19099965      -1.72203147
Cl       2.36597166      -0.39299513       0.24364952      -0.09084807       0.13957203      -0.04518646
H       -1.43399061       1.78771560      -1.30728745      -0.19707364      -0.10781476       0.33120186
H       -0.03051923       1.19576939      -0.37978775      -0.67944113      -0.01636324       0.21330262
H       -1.35076436       2.02655296       0.45673350      -0.54905368       0.85836685       1.21002067
Cl      -1.90263507      -0.21627670      -0.09520560      -0.13944935       0.31723877       0.01269278
6
Properties=species:S:1:pos:R:3:forces:R:3 energy=-26135.50466740773 free_energy=-26135.50466740773 dipole="-1.8904048423513575 0.6516756466255629 -0.24243577772260444" pbc="F F F"
C       -1.12308781       1.35172988      -0.32085203       0.34146875       1.51242360      -0.68486009
Cl       2.26396523      -0.39475255       0.23939950      -0.06360228       0.12747824      -0.04624822
H       -1.78889627       1.98268396      -0.92622770       0.20053651      -0.34413218      -0.19224131
H       -0.11258636       1.30014216      -0.72010815       0.01880474      -0.28639230      -0.18447085
H       -1.04814596       1.85042614       0.61626704       0.10487850       0.23115462       1.01873365
Cl      -1.79957501      -0.20919514      -0.10140054      -0.60208623      -1.24053198       0.08908681
6
Properties=species:S:1:pos:R:3:forces:R:3 energy=-26135.578827205096 free_energy=-26135.578827205096 dipole="1.3500039069789245 -0.1771896384465262 1.4211365770320874" pbc="F F F"
C        0.48118310       0.44131750       1.50704857      -1.72675942       0.60116077      -1.03002332
Cl      -1.82885988       0.44002129      -1.49040340       0.04734602       0.04280364       0.14493677
H        0.89069358       1.40103002       1.81324181       0.27106970      -0.09009942       0.02478278
H        0.08285742      -0.11844073       2.32239777      -0.61182767       0.09715486       0.86568306
H       -0.30853085       0.58595123       0.71872933       0.54465621      -0.00820370       0.66164001
Cl       1.64691826      -0.64267724       0.84176125       1.47551516      -0.64281616      -0.66701929
6
Properties=species:S:1:pos:R:3:forces:R:3 energy=-26135.49993388313 free_energy=-26135.49993388313 dipole="1.8100648931257728 0.4914202403740999 -0.8727587926369825" pbc="F F F"
C        1.83839116      -0.14682269      -0.02839525       0.53629181      -1.15943045      -0.56375091
Cl      -1.86822430      -0.76740202       1.25842812       0.15609267      -0.02886414       0.02727618
H        1.10256429      -0.54931561       0.64106688      -0.88712373      -0.22909169       0.08444084
H        2.45977526       0.49942234       0.57901674       0.63626189      -0.08024640      -0.19758706
H        2.34895131      -1.00949657      -0.56527341      -0.23953003       1.25193073       0.90618297
Cl       1.07726528       0.84727092      -1.26742652      -0.20199261       0.24570195      -0.25656202
6
Properties=species:S:1:pos:R:3:forces:R:3 energy=-26135.41189219743 free_energy=-26135.41189219743 dipole="1.3748553038866118 -1.460592456368559 -0.11796854208239767" pbc="F F F"
C        0.87931786      -1.39763502      -1.01425715       1.78747054      -1.61091116       1.41343745
Cl      -1.63019877       1.53997052      -0.26686364       0.02893124      -0.09723397      -0.13076421
H        0.62238627      -2.50803135      -1.00256469       0.49304164       1.50826492      -0.21724207
H        1.82683695      -1.14777510      -1.53816863      -0.82899365      -0.46889086      -0.00786526
H        0.07210467      -0.80621443      -1.32514052      -1.23535617       0.99233108      -0.37636350
Cl       1.26058000      -0.93955554       0.72043327      -0.24509359      -0.32356001      -0.68120241
6
Properties=species:S:1:pos:R:3:forces:R:3 energy=-26135.5803803401 free_energy=-26135.5803803401 dipole="1.3786388553241693 -0.30254708509509004 1.436168933102954" pbc="F F F"
C        0.42395859       0.25882995       1.49041324      -1.04190250       1.03590292      -0.45700397
Cl      -1.87402373       0.58472731      -1.51599718       0.08033319       0.03025940       0.13714508
H       -0.01487939      -0.20229249       2.39327043      -0.17241908       0.07030752      -0.77071021
H       -0.22696827       0.47409675       0.59708581      -0.14638699      -0.42084377       1.16011658
H        0.88158207       1.19203728       1.78231613       0.03153173       0.43684625       0.24521390
Cl       1.71218963      -0.71404632       0.87531433       1.24884364      -1.15247233      -0.31476137
6
Properties=species:S:1:pos:R:3:forces:R:3 energy=-26135.59217280678 free_energy=-26135.59217280678 dipole="0.7351519778479702 1.6992206781169805 0.9958244770345047" pbc="F F F"
C        0.68219016       0.59844822       1.35315591      -1.24409686       0.84013839       1.04769292
Cl      -0.77881006      -2.25374418      -0.86905014       0.08716101       0.06499552       0.12391918
H       -0.03804240       0.73143786       2.20661012       0.70079421      -0.24812853      -0.90532557
H        1.67381780       0.47979535       1.72545649       0.94628887       0.58381711       0.28427581
H        0.48895805      -0.28223197       0.80189968      -0.81091540      -0.96249338      -0.85971492
Cl       0.48725809       2.02456520       0.27597275       0.32076817      -0.27832910       0.30915257
6
Properties=species:S:1:pos:R:3:forces:R:3 energy=-26135.324893384048 free_energy=-26135.324893384048 dipole="-1.6640307989642285 -0.7139496213518641 -0.682185102049674" pbc="F F F"
C       -0.98853807       0.06562437      -1.05525431       3.06323661       4.01040496      -0.22111988
Cl       2.14069762       1.08720107       0.63756563      -0.07593501       0.00272009      -0.08863702
H       -0.47112706      -0.22085342      -1.95296666      -0.66755663      -0.73062752      -0.90650752
H       -0.05644142       0.42767643      -0.53250958      -0.79134014      -0.45266947       0.40085426
H       -1.51463197       1.05071261      -1.19174149      -0.28965024      -1.35110972      -0.00901946
Cl      -1.74769708      -1.14519290      -0.17546986      -1.23875459      -1.47871834       0.82442962
6
Properties=species:S:1:pos:R:3:forces:R:3 energy=-26135.572364607746 free_energy=-26135.572364607746 dipole="-1.513677499025506 0.4518036970155518 1.340615393607897" pbc="F F F"
C       -1.55129231       0.79736014       0.31915017      -0.46298042      -0.09251722      -0.71993230
Cl       1.55948836      -0.30603628      -1.80906924      -0.15589843       0.07757608       0.01357912
H       -2.62585539       0.58888768       0.24519529       0.31060827      -0.36565006      -0.24439079
H       -0.96163555       0.57157109      -0.58086773      -0.19664476      -0.18779915       0.21599334
H       -1.48799245       1.83487104       0.53693055       0.28219665       1.07629198       0.10689125
Cl      -0.88956849      -0.04929193       1.69521365       0.22271869      -0.50790163       0.62785939
6
Properties=species:S:1:pos:R:3:forces:R:3 energy=-26135.46061469541 free_energy=-26135.46061469541 dipole="0.8659681922295733 -0.5568282830052819 1.7428742165171365" pbc="F F F"
C        0.33571758      -1.24410196       1.14816374       0.65517433      -1.44834230      -2.17269568
Cl      -1.13016277       0.31541508      -2.08550510       0.03111374      -0.12323512       0.10330278
H       -0.36232210      -1.54146778       1.87691181      -0.70735438      -0.86771900       0.92400056
H        1.18368953      -1.93172994       0.94780945      -0.74087273      -0.04545989       0.49419816
H       -0.15777101      -1.08528019       0.19576108      -0.36795836       0.00827965      -0.30431595
Cl       0.99754756       0.23572327       1.61060409       1.12989740       2.47647665       0.95551013
6
Properties=species:S:1:pos:R:3:forces:R:3 energy=-26135.581440058355 free_energy=-26135.581440058355 dipole="-0.6172846816537381 -1.0457634214718659 1.7723183403185985" pbc="F F F"
C        0.19794958      -0.20754698       1.48645230      -0.39202039       1.79973166      -0.72921507
Cl       1.01119447       1.47968730      -1.97849349      -0.01956868      -0.07412377       0.16365325
H        1.03050516      -0.59799825       2.08103188      -0.09194476      -0.22790573      -0.53405568
H       -0.15966389       0.73108420       2.02969594       0.11897163      -1.32814988      -0.79779715
H        0.40120313       0.06282503       0.40137406       0.42327851      -0.11366039       1.41214182
Cl      -1.11443264      -1.41493783       1.34656183      -0.03871631      -0.05589190       0.48527283
6
Properties=species:S:1:pos:R:3:forces:R:3 energy=-26135.41311328476 free_energy=-26135.41311328476 dipole="1.4408065490411466 -0.9173187703230117 -0.8349024366169708" pbc="F F F"
C        0.62456311      -1.47742903      -0.75000820      -1.92435234      -3.21407131      -0.37072635
Cl      -1.83296031       0.78086088       0.92563517      -0.00659036      -0.13390781      -0.03161004
H        1.18871002      -2.36590030      -0.40676308      -0.28105574       0.30943116      -0.06599009
H        0.31027716      -1.69447290      -1.79278597       0.31053746       0.39337029       0.40269138
H       -0.29984234      -1.38745651      -0.16021990       0.28541408       0.29087383       0.00274765
Cl       1.58725183      -0.12537957      -0.60442232       1.61604689       2.35430384       0.06288745
6
Properties=species:S:1:pos:R:3:forces:R:3 energy=-26135.47323133264 free_energy=-26135.47323133264 dipole="1.5995735279689123 -1.1579419001951332 0.4355246539418494" pbc="F F F"
C        0.95336958      -0.54450049       1.14249210       0.43740539      -0.87946743       0.25039855
Cl      -1.98069416       1.49470309      -0.14191090       0.08093128      -0.08357704       0.08777850
H        0.89978987      -1.32814372       1.97550764       0.64485553       1.33013384      -1.03615483
H       -0.04092937      -0.34420317       0.82503659      -1.03917614       0.94570847       0.24301394
H        1.57069651       0.37035922       1.26247865      -0.68735101      -0.71155729       0.62387558
Cl       1.58859500      -1.27319677      -0.36071250       0.56333495      -0.60124054      -0.16891174
6
Properties=species:S:1:pos:R:3:forces:R:3 energy=-26135.50889150395 free_energy=-26135.50889150395 dipole="-0.6146941904004979 -1.0030738878420802 1.6760087140126196" pbc="F F F"
C        0.15052697      -0.18463251       1.40245200       0.39295197       2.44503303      -2.97546409
Cl       1.00138525       1.43863013      -1.95287998      -0.00206803      -0.05496307       0.15152427
H        1.10523537      -0.60340384       1.56925257       0.93277998      -0.60734026       1.13962573
H       -0.17778449       0.63448772       2.04178554       0.43687935      -0.18441369       0.23418438
H        0.34992599       0.26331346       0.34137176      -0.91999196      -0.59417259       1.46425784
Cl      -1.08870755      -1.38444484       1.36532342      -0.84055131      -1.00414343      -0.01412813
6
Properties=species:S:1:pos:R:3:forces:R:3 energy=-26135.509754643044 free_energy=-26135.509754643044 dipole="-2.038880260118965 -0.6720408410703165 -0.20772782184304442" pbc="F F F"
C       -1.39999211       0.16644262       0.35180019       0.71860225       2.49047347       1.43387281
Cl       2.38969427       1.06288275       0.43612279      -0.15739429      -0.00892456      -0.01256534
H       -1.65333545      -0.00838744       1.43681716       0.57730786       0.16764539      -1.12645401
H       -2.01901659       0.98458709      -0.03422123       0.14278974       0.15364943       0.41458158
H       -0.33514917       0.43023590       0.14663555      -0.52712102      -0.14896438       0.76197737
Cl      -1.80140467      -1.15926721      -0.59936955      -0.75418454      -2.65387934      -1.47141242
6
Properties=species:S:1:pos:R:3:forces:R:3 energy=-26135.53844239686 free_energy=-26135.53844239686 dipole="1.7130108520706049 0.29837002848774485 1.2493790670086435" pbc="F F F"
C        0.75160870       0.77007220       0.64743741      -1.79664455       3.34492575      -1.05261895
Cl      -2.18936366      -0.10389457      -1.56522079       0.10988508       0.04755719       0.07053944
H        0.26139364       1.34765811       1.44940091      -0.08610112      -0.41788048      -0.27215712
H        0.01769500       0.32390240      -0.00661115      -0.42115471      -0.63470060       0.00890195
H        1.24668023       1.52990988       0.02822642       0.08201846      -0.14071979       0.06051973
Cl       1.89132284      -0.24804955       1.30403165       2.11199684      -2.19918206       1.18481495
6
Properties=species:S:1:pos:R:3:forces:R:3 energy=-26135.53137322449 free_energy=-26135.53137322449 dipole="-0.614267576729354 1.3334746916746878 1.4971090478769917" pbc="F F F"
C       -1.07901131       0.64635080       0.65525975       0.18960724      -1.37911716      -2.42943059
Cl       0.47645037      -1.71917860      -1.95515668      -0.08935832       0.08852248       0.09276433
H       -1.78345159       1.29169402       0.13774165      -0.25880932       0.15322014       0.49307837
H       -1.48433511      -0.24242689       1.08620794      -0.89382825      -0.14767667       0.93159140
H       -0.50121400       0.15453422      -0.13776425       0.31702466       0.37468218      -0.20117164
Cl      -0.00369557       1.46595572       1.70225965       0.73536399       0.91036903       1.11316813
6
Properties=species:S:1:pos:R:3:forces:R:3 energy=-26135.58419048792 free_energy=-26135.58419048792 dipole="-1.9469376713890498 -0.5803741256496988 -0.11854603317228599" pbc="F F F"
C       -1.56566917       0.14856410       0.59977908       0.15788081       1.04898928       1.33027051
Cl       2.22724896       0.91216488       0.42147328      -0.15708283       0.00367902       0.04873090
H       -1.90479699      -0.31402692       1.54542647       0.18920851       0.02769018      -0.52667290
H       -2.17580636       1.05972273       0.43213193       0.19360233      -0.68104517      -0.35833652
H       -0.51993422       0.43386018       0.66956793       0.23995524       0.31649421       0.40111474
Cl      -1.56596280      -0.99604064      -0.69995706      -0.62356406      -0.71580752      -0.89510673
6
Properties=species:S:1:pos:R:3:forces:R:3 energy=-26135.630856834057 free_energy=-26135.630856834057 dipole="0.4722813077502087 -1.3396547168330042 1.4163229583411932" pbc="F F F"
C        0.89972856      -1.35990125       0.41168854       0.21909132       0.00700931       0.22019300
Cl      -0.29586185       1.39838830      -1.91996390       0.10248400      -0.12767759       0.02825723
H        0.81961404      -0.67744084      -0.42825791      -0.32251464       0.20426023      -0.14763152
H        0.65397846      -2.38538078       0.16050482      -0.26172591      -0.07385881      -0.11905579
H        1.88574491      -1.33830015       0.83279755       0.76124682      -0.04520663      -0.12297567
Cl      -0.10450069      -0.81248972       1.76441084      -0.49858160       0.03547349       0.14121275
6
Properties=species:S:1:pos:R:3:forces:R:3 energy=-26135.55627519455 free_energy=-26135.55627519455 dipole="1.3270517651807097 -0.8901689144266831 1.1308839253378749" pbc="F F F"
C        0.87727224      -1.45457541       0.37316145      -1.48662760       0.32905731      -1.80306094
Cl      -1.58874927       0.71800477      -1.52607008       0.08134414      -0.13304893      -0.00979226
H        0.29894660      -1.08306784      -0.53587853       0.26996271      -0.36448722       1.31381348
H        0.33671334      -2.23519791       0.91008888      -0.06975176       0.23259242       0.04886815
H        1.79207492      -1.83837740      -0.00107188       1.06785338      -0.49174439      -0.15841140
Cl       1.22248485      -0.07854633       1.38902732       0.13721912       0.42763081       0.60858297
6
Properties=species:S:1:pos:R:3:forces:R:3 energy=-26135.58645026139 free_energy=-26135.58645026139 dipole="0.7457818975624492 1.7117511568335793 0.8574800363107382" pbc="F F F"
C        0.62642745       0.68815339       1.30695944       1.43627472      -1.91632168       0.54152755
Cl      -0.84300597      -2.24174632      -0.72696870       0.06154745       0.08841386       0.12939346
H        0.09474180      -0.17610921       0.89071960      -0.31126734       0.15597392       0.11694173
H        0.19583976       1.06511395       2.23352813       0.10728357      -0.29079847       0.08823587
H        1.69913104       0.29845577       1.44226020      -1.43359105       0.94084592      -0.00613362
Cl       0.57418650       1.97482472       0.15430495       0.13975265       1.02188644      -0.86996498
6
Properties=species:S:1:pos:R:3:forces:R:3 energy=-26135.669022079554 free_energy=-26135.669022079554 dipole="0.5816828025876889 -0.9794028058855936 1.7724900779029833" pbc="F F F"
C       -0.15117177      -1.24405099       0.89837178      -0.41448730      -0.53781251       0.03249311
Cl      -0.93450194       0.89915981      -2.23500121       0.01703368      -0.11483556       0.11091170
H       -1.06770276      -1.38506661       1.47562325       0.03349414       0.30549796      -0.11117610
H        0.19233349      -2.23615180       0.60281374       0.43994442       0.10322091       0.17061614
H       -0.28350012      -0.64124735       0.02455359      -0.56092646       0.34032459      -0.73810614
Cl       1.01867301      -0.35645567       1.87082186       0.48494153      -0.09639539       0.53526129
6
Properties=species:S:1:pos:R:3:forces:R:3 energy=-26135.514055866915 free_energy=-26135.514055866915 dipole="-1.3601940396847798 0.2398286972929903 -1.388975015010457" pbc="F F F"
C       -0.45570018      -0.36878550      -1.38717031       1.79445375      -2.25207694       2.73772118
Cl       1.88701580      -0.51841564       1.53535503      -0.07285928      -0.02927702      -0.12977739
H        0.23338235      -0.54210384      -0.43322288      -1.29362366       0.20089727      -1.82501904
H        0.15876316       0.03954824      -2.14011929       0.55435538       0.53787237      -1.07586746
H       -0.93439304      -1.30683049      -1.69620718       0.43445150       0.11965058      -0.04328989
Cl      -1.71719915       0.69481462      -0.94395846      -1.41677769       1.42293374       0.33623260
6
Properties=species:S:1:pos:R:3:forces:R:3 energy=-26135.546636724855 free_energy=-26135.546636724855 dipole="-1.5801834409615836 -1.1463303996184122 -0.0728386310154014" pbc="F F F"
C       -1.45637606      -0.57532243      -0.92313543       2.06649559       0.59461333       0.49002627
Cl       1.73132433       1.46930946      -0.28950588      -0.13232428      -0.02172760      -0.10376716
H       -0.67924592       0.21098841      -1.03286060      -0.22147655      -0.53225828      -0.28508259
H       -2.40041808      -0.11663799      -0.99377004      -1.43102401       0.41583192       0.35245418
H       -1.38050591      -1.36010848      -1.65529714       0.23835576      -0.33124648      -0.22809822
Cl      -1.11105961      -1.23839036       0.70697168      -0.52002651      -0.12521289      -0.22553248
6
Properties=species:S:1:pos:R:3:forces:R:3 energy=-26135.50014521821 free_energy=-26135.50014521821 dipole="1.1621464872468579 1.7670316213261439 -0.24783992007972888" pbc="F F F"
C        0.82020776       1.16049002       0.68193270      -2.05763920      -3.09717030       0.21250758
Cl      -1.37755077      -2.11245702       0.66349251       0.07547019       0.14950225       0.04844580
H        0.65586989       2.05017885       1.20308563      -0.12026115       1.24621498       1.20264043
H        1.59363590       0.51488194       1.11564551       0.31746971       0.53690867      -0.46937038
H       -0.11177852       0.47550716       0.73001703       1.24363469       1.12177722      -0.10189849
Cl       1.03886686       1.63280856      -0.98123107       0.54132576       0.04276718      -0.89232495
6
Properties=species:S:1:pos:R:3:forces:R:3 energy=-26135.64231347349 free_energy=-26135.64231347349 dipole="1.534671380338561 -0.38552531292191505 1.522808054910877" pbc="F F F"
C        0.47479423       0.19141649       1.39869341      -0.77007740       1.54877872      -0.30231330
Cl      -2.05110633       0.65266790      -1.63131988       0.09740303      -0.00540388       0.14565330
H       -0.04696440      -0.30941782       2.21111705      -0.16748841       0.29566271       0.05122415
H       -0.15699855       0.27363781       0.49031269       0.12258668      -0.03026602       0.48975276
H        0.86686131       1.20079609       1.67436341      -0.70742676      -0.72669697       0.01859699
Cl       1.87138969      -0.75064928       1.03299813       1.42500286      -1.08207457      -0.40291389
6
Properties=species:S:1:pos:R:3:forces:R:3 energy=-26135.475994075434 free_energy=-26135.475994075434 dipole="1.8001128637058104 -0.5953139000508685 0.8938829917757972" pbc="F F F"
C        1.62706580      -0.71358736      -0.14766692      -0.85901292       0.41105841      -1.84077432
Cl      -1.95295418       0.57788234      -1.35775476       0.14755792      -0.06390743      -0.02317599
H        2.44826460      -0.12379493      -0.50251498       0.85891396      -0.12452893      -0.14734224
H        0.78648250      -0.42817778      -0.76790856      -0.51289654       0.20026315      -0.14901144
H        1.70514094      -1.77118457      -0.26316781       0.62962565      -0.77783695       0.09612432
Cl       1.26121668      -0.27005045       1.45139333      -0.26418808       0.35495175       2.06417966
6
Properties=species:S:1:pos:R:3:forces:R:3 energy=-26135.239005772484 free_energy=-26135.239005772484 dipole="0.7215184482863307 -0.6276388386569569 1.922569684213339" pbc="F F F"
C       -0.31466664      -0.40337493       1.62628132      -2.71890172       0.91127845      -1.47537504
Cl      -1.16360673       0.72461930      -2.11618090      -0.00521346      -0.01431774       0.17190740
H       -0.60066004      -1.43235727       1.57901585      -1.36666299      -0.40448050      -0.28794390
H       -0.66200353       0.23967740       0.75001104      -0.26429518      -1.05534588       1.13857859
H       -0.59899889      -0.01178967       2.58580935      -0.02082003       0.44320860       0.45064589
Cl       1.32315586      -0.55370135       1.42542152       4.37589339       0.11965708       0.00218705
6
Properties=species:S:1:pos:R:3:forces:R:3 energy=-26135.24461120366 free_energy=-26135.24461120366 dipole="-1.6609945140118474 -0.8273263567796562 -0.8351167867254136" pbc="F F F"
C       -0.77987649      -0.94335548      -1.31339004       3.53644152      -2.10531247      -0.24309041
Cl       2.07892091       0.80649148       0.70001564      -0.03599850      -0.09430531      -0.11450529
H       -0.76655902      -2.01794435      -1.24916788      -0.31117357      -0.71826306      -0.46702293
H        0.26950772      -0.71797121      -1.08132085      -0.14072815       0.67400315      -0.09734088
H       -1.04767109      -0.61951739      -2.26283323      -0.51303252       0.64938623      -1.80291905
Cl      -1.77076360      -0.39145851      -0.12441067      -2.53550877       1.59449146       2.72487857
6
Properties=species:S:1:pos:R:3:forces:R:3 energy=-26135.26980580385 free_energy=-26135.26980580385 dipole="-0.20824818931140682 0.9977656006448774 1.8296840688852125" pbc="F F F"
C       -1.04279042       0.70505784       1.27448505      -4.29259809      -1.40698078      -2.40716748
Cl      -0.08296496      -1.13923778      -2.13099893      -0.10238193       0.04503954       0.11844154
H       -1.70875049       0.44788430       2.11320067       0.59429428      -0.14236425       0.08061070
H       -1.19053342      -0.06502421       0.42859631       0.19106025       1.07054617       1.17792739
H       -1.41491531       1.65280726       0.89844741      -0.11566036       0.19383741      -0.20799990
Cl       0.55894997       0.84247043       1.60136265       3.72528585       0.23992190       1.23818774
6
Properties=species:S:1:pos:R:3:forces:R:3 energy=-26134.30078269671 free_energy=-26134.30078269671 dipole="1.110926337577216 0.13339553311639668 1.2501474915862296" pbc="F F F"
C        1.20312415       0.45759292       1.84339467       2.27779555       2.04984225       5.29036944
Cl      -1.27124209      -0.04571050      -1.25890393      -1.40473733      -0.04403250      -1.38550494
H        2.26403079       0.23486020       2.10725313      -0.42487456       0.15395397       0.08608440
H        0.57819342       0.08447083       2.67305332       0.19567405       0.10096585      -0.05628107
H        1.10558395       1.55606430       1.85422249       0.02734369      -0.15278924       0.03813982
Cl       0.75135169      -0.16265473       0.44568479      -0.67120141      -2.10794032      -3.97280765
6
Properties=species:S:1:pos:R:3:forces:R:3 energy=-26135.4545689049 free_energy=-26135.4545689049 dipole="1.00998726688753 1.7597055983587317 0.761483823674551" pbc="F F F"
C        1.10133426       0.68272245       1.08618860      -0.96732100      -1.89638847       0.13373672
Cl      -0.99483121      -2.24055255      -0.62748308       0.08084602       0.06039016       0.10771571
H        1.92026632       0.18863344       0.63085261       0.99574080      -0.22850805      -0.47359019
H        0.33470980      -0.07551519       1.21021584      -0.34117447      -0.14460920      -0.31980868
H        1.30790418       1.04838175       2.03550877       0.85030092       0.66983902       1.83072770
Cl       0.52037397       1.97620921       0.14923763      -0.61839227       1.53927654      -1.27878126
6
Properties=species:S:1:pos:R:3:forces:R:3 energy=-26135.318645296342 free_energy=-26135.318645296342 dipole="-0.4019931441989037 -1.0256601475208986 1.7473428010831988" pbc="F F F"
C        0.33133911      -0.40853093       1.90729991       1.16654183       0.14106940      -0.33252858
Cl       0.69825540       1.28638976      -1.73051731       0.07218089       0.00265238       0.12472368
H        0.80981686      -1.18091547       2.45383509       0.97002666      -0.99756004       0.12898774
H        0.01326859       0.22328897       2.68905702      -1.25105426       1.15954976       0.52790122
H        0.98463554       0.12919288       1.23575863       0.45581203       0.17422871      -0.03889569
Cl      -0.86191963      -1.12441723       0.90292185      -1.41350716      -0.47994021      -0.41018837
6
Properties=species:S:1:pos:R:3:forces:R:3 energy=-26135.474631563106 free_energy=-26135.474631563106 dipole="0.33695016557915075 -1.9506992540347108 0.834854365629986" pbc="F F F"
C        0.62874589      -0.97929908       1.28448212       2.00696532       2.24055204      -0.61523865
Cl      -0.21915226       2.40158463      -0.67321780       0.05943130      -0.09142110       0.13274489
H        0.30592829      -1.21804132       2.23938462      -1.16811439      -0.44329536       1.87383876
H        0.48247792       0.11226552       1.06057118      -0.10702429      -0.98690544      -0.08150045
H        1.69989847      -1.19302994       1.30997150       0.10027335       0.22198934      -0.20298775
Cl      -0.06462991      -2.00441799       0.10693511      -0.89153128      -0.94091948      -1.10685681
6
Properties=species:S:1:pos:R:3:forces:R:3 energy=-26135.486800530693 free_energy=-26135.486800530693 dipole="1.3595645103663592 -0.2781852072702752 1.5078632893102573" pbc="F F F"
C        0.57636182       0.27226745       1.81217228      -0.94325928       0.04716032       0.51740698
Cl      -1.71787524       0.51707251      -1.44862610       0.01423453       0.05052022       0.14455815
H        0.15918211      -0.30625172       2.65137629       0.35830709      -0.18511262      -0.43363280
H       -0.23229280       0.70015137       1.25427601      -0.67367332       0.26611069      -0.34940872
H        1.17756451       1.06321010       2.19959954       0.61051533       0.56121261       0.33583014
Cl       1.49119058      -0.65075293       0.66103526       0.63387565      -0.73989123      -0.21475376
6
Properties=species:S:1:pos:R:3:forces:R:3 energy=-26135.300658462776 free_energy=-26135.300658462776 dipole="0.6894558995542145 -0.5738929600286352 1.961438704435764" pbc="F F F"
C       -0.33747879      -0.35036924       1.68019652      -3.99037013       0.85814126       1.66826167
Cl      -1.09433232       0.68577193      -2.13320073      -0.03094057      -0.04241147       0.14583530
H       -0.79789208      -1.07752304       2.37367892       0.50076024      -0.05823317      -0.32950463
H       -0.85638995      -0.36056794       0.76177204      -0.65467187      -0.33028106      -1.36838332
H       -0.62594759       0.62859630       2.08746844       0.59276134       0.02365154       0.10739246
Cl       1.27351227      -0.54404399       1.41541390       3.58246099      -0.45086711      -0.22360149
6
Properties=species:S:1:pos:R:3:forces:R:3 energy=-26134.85994839589 free_energy=-26134.85994839589 dipole="-1.9026196118274248 -0.9435183938150522 0.1481749885190311" pbc="F F F"
C       -1.63522632      -0.02807772       0.60062504      -0.71451642       4.83609942       6.59618612
Cl       2.09022124       1.29761482      -0.00947127      -0.13865666      -0.01228656       0.06706566
H       -1.97506969      -0.26954267       1.69799233       0.25009479       0.16623048      -1.84905355
H       -2.37323788       0.64517766       0.20880584      -0.31124975       0.48116959      -0.36594496
H       -0.69394076       0.49016254       0.79931253       0.06601427       0.39179900      -0.45154555
Cl      -1.39280828      -1.31272010      -0.27097631       0.84831378      -5.86301192      -3.99670772
6
Properties=species:S:1:pos:R:3:forces:R:3 energy=-26135.48845053515 free_energy=-26135.48845053515 dipole="1.089789433422753 -0.03467087378652976 1.779202256893673" pbc="F F F"
C        0.17740167       0.40424677       1.86740200      -0.72082207      -0.42591269       0.73718182
Cl      -1.48577251       0.20546319      -1.79731725      -0.01465170       0.05777280       0.14501879
H       -0.29443562      -0.38692480       2.47048210      -0.08156208       0.59483644       0.00477651
H       -0.50751849       0.78222390       1.13501897      -0.60055690       0.28484416      -0.35903334
H        0.59260476       1.19578986       2.48191165       0.00259403       0.07850530       0.16025230
Cl       1.43161885      -0.38766984       0.99152099       1.41499872      -0.59004601      -0.68819608
6
Properties=species:S:1:pos:R:3:forces:R:3 energy=-26135.510388654 free_energy=-26135.510388654 dipole="1.1013490931540408 -0.03714312991725924 1.7729584632355975" pbc="F F F"
C        0.15967863       0.40397615       1.84314012      -0.52319409      -0.82191537       1.14284639
Cl      -1.51016835       0.21774430      -1.79275845      -0.01722251       0.05454445       0.15403244
H       -0.32540374      -0.27570327       2.59078544       0.51258040       0.31123132      -0.72870690
H       -0.58148137       0.70688507       1.12395863      -0.21078553       0.35883525      -0.40569895
H        0.63625908       1.19507480       2.39726949      -0.19178487       0.63694207       0.07082127
Cl       1.46376189      -0.40085923       0.99448297       0.43040660      -0.53963772      -0.23329425
6
Properties=species:S:1:pos:R:3:forces:R:3 energy=-26135.457029772395 free_energy=-26135.457029772395 dipole="1.6704904588234546 -1.1227357758311938 0.44593891859688456" pbc="F F F"
C        1.17366189      -0.79782505       1.27418836      -1.71317511      -0.22705273       0.12285382
Cl      -1.93599049       1.29238833      -0.13281119       0.08605741      -0.04679143       0.14075346
H        0.81937270      -1.80669759       1.56146975       0.27326397       0.71584622       0.50345803
H        0.36091753      -0.03974546       1.39543309       0.64382212      -0.52635143       0.11619241
H        2.11675848      -0.51804094       1.69622980       0.32826931       0.12122472       0.70472407
Cl       1.44458631      -0.95484033      -0.43121234       0.38176229      -0.03687536      -1.58798179
6
Properties=species:S:1:pos:R:3:forces:R:3 energy=-26135.474815222384 free_energy=-26135.474815222384 dipole="-1.3902613516741487 0.14796380712372537 -1.7386149977393701" pbc="F F F"
C       -0.59015771      -0.62917906      -1.34164384       2.40257945      -1.76403183      -0.32288585
Cl       1.74606615      -0.48097947       1.93787816      -0.06979759      -0.03871948      -0.15141999
H       -1.22669896      -1.47220672      -1.30290957      -0.87291150      -0.97296043       0.79611825
H        0.17120402      -0.62228287      -0.53798850      -0.47061078      -0.01426708      -0.14793184
H       -0.09867793      -0.82191399      -2.30007413       0.30055797       0.64224867      -0.06020739
Cl      -1.51329350       0.77708115      -1.36556266      -1.28981754       2.14773016      -0.11367317
6
Properties=species:S:1:pos:R:3:forces:R:3 energy=-26135.409505937492 free_energy=-26135.409505937492 dipole="0.7308890500671351 -0.6204278154225901 1.929352171275756" pbc="F F F"
C       -0.32116251      -0.39859293       1.62079728      -2.88423571      -0.99686575       1.24086009
Cl      -1.16368502       0.71921478      -2.10834503      -0.01442864      -0.01288770       0.15047286
H       -0.76432602      -1.41670473       1.54637106       0.01233508       0.78492373      -0.19327660
H       -0.66194239       0.24092756       0.85304498      -0.82071102       0.50651348      -1.11452359
H       -0.65913514       0.01639230       2.59071856       0.64380572      -0.11119557      -0.24274804
Cl       1.33179700      -0.55119899       1.41730266       3.06323456      -0.17048819       0.15921529
6
Properties=species:S:1:pos:R:3:forces:R:3 energy=-26134.710308341117 free_energy=-26134.710308341117 dipole="-1.6488799844580682 -1.2411601045951766 -0.19766746296877624" pbc="F F F"
C       -1.87537492      -0.32371626      -0.07142299      -5.70353791       5.92956189      -0.51944612
Cl       1.63835008       1.58177957       0.24462729      -0.11422470       0.02159340       0.00309815
H       -1.64804431       0.59182053       0.46670269       1.14935858      -0.20215883       0.68043572
H       -2.82113157      -0.65008160       0.40753775       0.19284515      -0.05573821      -0.54181072
H       -2.08992896       0.17774995      -1.06325573      -0.23891170      -0.91538506       0.66188076
Cl      -0.81644018      -1.47549717      -0.21505355       4.71447058      -4.77787319      -0.28415778
6
Properties=species:S:1:pos:R:3:forces:R:3 energy=-26135.551585376852 free_energy=-26135.551585376852 dipole="1.7123734835209872 0.104544437047725 1.3435654761218543" pbc="F F F"
C        1.15185663       0.86782352       0.63785969       0.28809205       1.30159085      -1.86668741
Cl      -2.00807170       0.21186362      -1.68953068       0.13154777       0.07405126       0.09190489
H        1.26551547       1.61446270       1.41317421      -0.24036297       0.58063638      -0.27559312
H        0.17050703       0.82239300       0.16684662      -0.40297765      -0.00937020       0.38398599
H        1.82469022       1.07131544      -0.24568714      -0.23779887      -0.29975004       1.17604756
Cl       1.52508867      -0.60564824       1.43547311       0.46149968      -1.64715826       0.49034210
6
Properties=species:S:1:pos:R:3:forces:R:3 energy=-26135.200871930694 free_energy=-26135.200871930694 dipole="-1.0943579578676252 -0.9652796270634878 -1.5772576132850724" pbc="F F F"
C       -0.66323296      -1.45666863      -0.72547614       1.94125814      -2.91206810       2.72918792
Cl       1.28119677       0.80981187       1.94595547      -0.03533571      -0.12494469      -0.06956964
H       -1.45095243      -1.46775826       0.01134296       0.01107428      -0.73413602       0.58660707
H        0.32436748      -1.30289954      -0.21262467      -0.92247784      -0.18044386      -0.21869159
H       -0.62601808      -2.37112968      -1.32712905      -0.12888818      -0.04821261       0.25956554
Cl      -1.00664910      -0.17006664      -1.65669364      -0.86563069       3.99980527      -3.28709930
6
Properties=species:S:1:pos:R:3:forces:R:3 energy=-26135.498703224715 free_energy=-26135.498703224715 dipole="1.9016268129374962 0.40690997890471853 -0.9259113090925166" pbc="F F F"
C        1.64629519       0.09474237       0.14930840       0.15075132      -0.89463573       0.91901653
Cl      -2.09123186      -0.55824637       1.41361626       0.16897282       0.00542809       0.00371611
H        0.72440872      -0.07445911       0.65353414      -1.39059835       0.48995953       0.24363721
H        2.17102785       0.92149345       0.62226939       0.40980949      -0.43663985       0.19251415
H        2.05470002      -0.92527158       0.23070174       0.83857266       0.67171911      -0.20953594
Cl       1.39268774       0.52837084      -1.50704082      -0.17750794       0.16416886      -1.14934805
6
Properties=species:S:1:pos:R:3:forces:R:3 energy=-26135.336777227003 free_energy=-26135.336777227003 dipole="0.5549491646762026 2.0421202020958944 0.31823005555033235" pbc="F F F"
C       -0.39291173       1.62972167       0.60475556      -1.95257773      -2.58685937      -1.59288048
Cl      -0.96213998      -2.27692568      -0.20582485      -0.04595964       0.15020376       0.04222794
H       -1.01826701       2.38288034       0.23783056      -0.61676428       1.58131581      -0.78538431
H       -0.29493284       1.71377819       1.61199275       0.06546824       0.19195370       3.11401053
H       -0.89713325       0.67106120       0.34287186       0.36685871       0.33778824       0.38271762
Cl       1.15811399       1.58918383      -0.06142355       2.18297470       0.32559785      -1.16069130
6
Properties=species:S:1:pos:R:3:forces:R:3 energy=-26135.321320077626 free_energy=-26135.321320077626 dipole="-0.6010416570268726 -1.6506021514723803 -1.3784058310811431" pbc="F F F"
C       -1.17838373      -0.94530889      -0.65553694      -3.44573631       1.04996962       0.79948948
Cl       0.37805286       1.94972869       1.67185777      -0.08606445      -0.09990564      -0.04231169
H       -1.49228628      -0.11265956      -1.28768385      -0.34762260       0.26271865       0.63937467
H       -0.93885803      -0.64958144       0.34480683       0.12136759       0.66844124       0.55023366
H       -2.00508494      -1.67513486      -0.60562934       0.28253989       0.12724844      -0.12227099
Cl       0.14734308      -1.56013828      -1.40572100       3.47551589      -2.00847231      -1.82451513
6
Properties=species:S:1:pos:R:3:forces:R:3 energy=-26135.36937432489 free_energy=-26135.36937432489 dipole="-1.7736871264959366 -0.6548277229600963 -0.8081181119955482" pbc="F F F"
C       -1.34261572       0.16914612      -1.24278068      -1.27083623       2.54488251       1.20643846
Cl       2.01006705       1.00179775       0.66903028      -0.10345811       0.02935393      -0.12488405
H       -1.46346031      -0.14476905      -2.22207197      -0.10578348      -0.86038278      -2.00216187
H       -0.39723571       0.63974199      -1.07505491       0.62793634       0.68850956      -0.02201015
H       -2.21390634       0.82998381      -0.98230563       1.03884389      -0.10267791      -0.46775096
Cl      -1.43930946      -1.09678140      -0.12627409      -0.18670241      -2.29968531       1.41036856
6
Properties=species:S:1:pos:R:3:forces:R:3 energy=-26135.158017085385 free_energy=-26135.158017085385 dipole="-0.13654682097688634 -1.9601136822720941 -0.8338734208387513" pbc="F F F"
C       -0.94805552      -1.28959862      -0.81235302      -5.69264496       0.87370530       0.28011247
Cl      -0.14349984       2.28015696       0.87983776      -0.09021996      -0.09592751      -0.06916158
H       -1.29478118      -1.43372831      -1.84456004       0.15853439      -0.41261742       0.20836540
H       -1.15588001      -0.25366905      -0.59714695       0.60308585       0.80318043       0.12395515
H       -1.65326604      -1.78119903      -0.06914907       0.65277336       0.06345737      -1.11954308
Cl       0.58140826      -1.74459380      -0.53320546       4.36847134      -1.23179818       0.57627165
6
Properties=species:S:1:pos:R:3:forces:R:3 energy=-26135.461714511443 free_energy=-26135.461714511443 dipole="1.204453449037203 1.8266430821933155 -0.2564174286289221" pbc="F F F"
C        0.84478156       1.16586749       0.65305253       0.72232174      -1.79201795       2.02399846
Cl      -1.40224323      -2.15064349       0.64349084       0.10369303       0.13399899       0.04068221
H        0.15389674       1.68913785       1.25425274      -1.16099558       1.32992071       0.08493819
H        1.80627352       1.31583165       1.17163998      -0.21861082      -0.63773798      -0.17074733
H        0.43920726       0.13907032       0.68055520       0.62368821       0.03703275      -0.05439050
Cl       1.04779348       1.66623089      -0.95308501      -0.07009657       0.92880349      -1.92448103
6
Properties=species:S:1:pos:R:3:forces:R:3 energy=-26135.351763124127 free_energy=-26135.351763124127 dipole="-0.6222607498106173 -1.1370990550539855 -1.6959115758536936" pbc="F F F"
C       -0.30594515      -1.53368719      -0.73597758       2.89032601      -2.00579373       3.40275488
Cl       0.77842318       1.05056254       2.14264342      -0.01915242      -0.14227011      -0.08448146
H       -1.14351239      -2.13014108      -0.41263288      -0.47798890      -0.07846767      -0.01483862
H        0.14532082      -1.00580816       0.14835466      -0.63803167      -0.44618324      -0.38880619
H        0.51619541      -2.22048983      -1.05920709      -0.73785367       0.39857131      -0.15047071
Cl      -0.66105902      -0.37861875      -1.85565048      -1.01729935       2.27414343      -2.76415790
6
Properties=species:S:1:pos:R:3:forces:R:3 energy=-26135.32591764511 free_energy=-26135.32591764511 dipole="0.8986683539911791 -0.2608497275136562 1.9069458196774536" pbc="F F F"
C       -0.15666813      -0.06349882       1.66347153      -4.81527830       2.57976185      -1.33943023
Cl      -1.34414465       0.35707241      -2.11337894      -0.00794676      -0.00791691       0.17064757
H       -0.74187506       0.02056419       0.66850317       1.01546150      -0.49628231       1.18966691
H       -0.34172550       0.95689624       2.09241699       0.38824197      -0.84515673       0.01323262
H       -0.64509724      -0.78971337       2.28641515      -0.02125162      -0.50505406       0.36106477
Cl       1.44638071      -0.34089652       1.40625142       3.44077320      -0.72535185      -0.39518164
6
Properties=species:S:1:pos:R:3:forces:R:3 energy=-26135.36791544368 free_energy=-26135.36791544368 dipole="1.5624117524926389 -0.2893123969262299 1.344565553315137" pbc="F F F"
C        0.84407764       0.47996429       1.47882317      -0.09806330       3.17438547       0.96584674
Cl      -1.88905216       0.59572710      -1.35223564       0.05285823       0.03660419       0.13886014
H       -0.20121246       0.53358500       1.22266114      -0.47322135       0.12844922      -0.17495047
H        1.37720583       1.36479515       1.02880441      -0.84800426      -0.43361373       0.88140290
H        0.97663398       0.44379065       2.58036737       0.02650114       0.04769363      -0.61395041
Cl       1.54185710      -0.82494457       0.71379748       1.33992954      -2.95351878      -1.19720890
6
Properties=species:S:1:pos:R:3:forces:R:3 energy=-26135.484380839796 free_energy=-26135.484380839796 dipole="-1.626961989340307 -1.1021637254856536 -0.9297154386442612" pbc="F F F"
C       -0.50677214      -0.92277193      -1.18827138       2.54868429       0.07140827       1.35362351
Cl       2.16762864       1.21317623       0.87044918      -0.08442896      -0.09077220      -0.10406512
H       -0.09529788      -1.90356454      -1.04424337       0.08804336      -0.69995331      -0.14959990
H        0.16855346      -0.27130304      -0.63212148       0.31664554       0.24064032      -0.18339423
H       -0.46438729      -0.65983019      -2.20653592      -0.66438375       0.40404769      -1.33613722
Cl      -1.98480492      -0.81992407      -0.35743672      -2.20456048       0.07462922       0.41957296
6
Properties=species:S:1:pos:R:3:forces:R:3 energy=-26135.465092133985 free_energy=-26135.465092133985 dipole="1.1048603871501808 -0.048950466808533946 1.760149892369658" pbc="F F F"
C        0.15160574       0.40206701       1.81180204      -0.74627539      -1.71379104      -0.17424797
Cl      -1.55813561       0.24064891      -1.82276494       0.00298251       0.04009822       0.17254745
H       -0.19502053      -0.33237724       2.60724908       0.27246551       1.55784239      -0.62713262
H       -0.56165708       0.43841420       0.99211230      -0.51204924       0.16190421       0.08399788
H        0.43976616       1.40493593       2.08181661       0.06363829       0.11469983       0.61677824
Cl       1.51578047      -0.41983897       1.04735784       0.91923832      -0.16075362      -0.07194298
6
Properties=species:S:1:pos:R:3:forces:R:3 energy=-26135.51041041595 free_energy=-26135.51041041595 dipole="1.6252429180126766 -0.44704036497662286 1.541516224055939" pbc="F F F"
C        0.51303822       0.09027676       1.11099545      -4.18710098       0.71308161      -0.89086078
Cl      -2.14954390       0.67127241      -1.76295195       0.10485348      -0.03516894       0.12723334
H       -0.28182405      -0.34045585       1.74443179       0.54835501       0.04475140       0.25033017
H        0.00675547      -0.02825122       0.11230785       1.01704922       0.32544169       0.44503224
H        0.56948683       1.14406222       1.36541232       0.29019141       0.12319261      -0.12703468
Cl       1.96734712      -0.72390632       1.29490977       2.22665188      -1.17129837       0.19529971
6
Properties=species:S:1:pos:R:3:forces:R:3 energy=-26135.38679193547 free_energy=-26135.38679193547 dipole="1.6916428863913897 0.12441902600879277 1.307191679379452" pbc="F F F"
C        1.20410433       0.90380325       0.65597785      -1.74483874       3.10163850      -3.01238192
Cl      -1.96110474       0.16275320      -1.62911522       0.14035545       0.06043714       0.04873687
H        0.71681074       1.62803296       1.35282562       0.25980839      -0.62656426      -0.57382403
H        0.53866203       0.72685122      -0.26878033       0.51004538       0.49636193       1.48983668
H        2.11201392       1.37423440       0.24436802       0.02541824      -0.31499751       0.46301812
Cl       1.45738334      -0.57501081       1.36908727       0.80921128      -2.71687579       1.58461428
6
Properties=species:S:1:pos:R:3:forces:R:3 energy=-26135.41609312903 free_energy=-26135.41609312903 dipole="-0.5799822095990743 -1.0667777052122744 1.770500444088541" pbc="F F F"
C        0.21219657      -0.26057379       1.57626720       1.99881130       1.73675428       1.38813732
Cl       0.92951378       1.42791590      -1.92708886      -0.01080583      -0.05812427       0.16646831
H        1.00412124      -0.88576669       2.03389583       0.14374143       0.59898420      -0.70491277
H       -0.01233974       0.50929852       2.38534381      -0.21272542      -0.80212836      -1.23257656
H        0.43688310       0.19947906       0.60060169       0.63441335       0.20281755       0.53202083
Cl      -1.04203245      -1.33459695       1.25028927      -2.55343483      -1.67830340      -0.14913713
6
Properties=species:S:1:pos:R:3:forces:R:3 energy=-26135.45363964347 free_energy=-26135.45363964347 dipole="1.91332543619181 -0.8812466813213262 0.8246249568623855" pbc="F F F"
C        0.98039088      -0.77866409      -0.06713936      -2.38719678       0.38795476      -2.95764107
Cl      -2.36479260       0.96756562      -1.23902195       0.13470648      -0.10446113       0.04559449
H        0.93040089      -1.80076298      -0.47062815       0.53469889       0.22249747       0.18169417
H        1.43531423      -0.08275180      -0.77799972      -0.23926058      -0.44176005      -0.40297402
H       -0.11081346      -0.46457146      -0.05266671       1.17571347       0.03462724       0.89945047
Cl       1.96850442      -0.63697591       1.29877134       0.78133852      -0.09885830       2.23387596
6
Properties=species:S:1:pos:R:3:forces:R:3 energy=-26134.887415794823 free_energy=-26134.887415794823 dipole="0.04921042722993227 -0.31630132209516787 2.198324167826256" pbc="F F F"
C       -0.56806670      -0.72109006       1.34956595      -1.76359164      -1.57083587      -4.08702232
Cl      -0.30322806       0.15337695      -2.59263690      -0.01546840      -0.06414009       0.14277271
H       -1.47632303      -0.40184824       1.70542065      -2.63174778       0.88663394       0.11603332
H       -0.53609973      -1.73049373       1.54816163       0.54982759      -2.52805608       0.73951414
H       -0.38764688      -0.61135960       0.27566020      -1.04144657      -0.03726891      -0.27287205
Cl       0.56394228       0.16895489       2.03503145       4.90242681       3.31366701       3.36157419
6
Properties=species:S:1:pos:R:3:forces:R:3 energy=-26135.367369298372 free_energy=-26135.367369298372 dipole="-1.407112812086644 -0.5841214056937125 -1.5045002316094036" pbc="F F F"
C       -1.52100046       0.28506291      -0.85920069      -1.82392006       1.99285221       2.94011936
Cl       1.40173032       0.93796526       1.78362305      -0.13604311       0.02741732      -0.04717128
H       -1.24077739       1.18646310      -1.34449881       0.64099482       0.66023720      -0.84724483
H       -1.33053408       0.52206855       0.24649487       0.04709395      -0.82844039      -1.41808454
H       -2.60381940       0.18739591      -1.00662370       0.11070540      -0.12630982       0.08813323
Cl      -0.73924038      -1.08845851      -1.43266891       1.16116899      -1.72575651      -0.71575195
6
Properties=species:S:1:pos:R:3:forces:R:3 energy=-26135.42994376095 free_energy=-26135.42994376095 dipole="-0.15290341497079676 -1.899138151254885 -0.873437795261996" pbc="F F F"
C       -1.01353956      -1.30614582      -0.79320843      -1.31488605       2.87586475       0.84440544
Cl      -0.18247574       2.20405601       0.93403441      -0.10324194      -0.10684206      -0.04465041
H       -1.24638711      -0.90611588      -1.76651966       0.33193308       0.21272948      -0.53847792
H       -1.26160555      -0.48859287      -0.05724975       0.23376904      -0.68905950      -0.67143982
H       -1.67675188      -2.10608072      -0.64694453      -0.53484466      -1.57864801       0.46015420
Cl       0.64486915      -1.66197101      -0.59503001       1.38727052      -0.71404466      -0.04999150
6
Properties=species:S:1:pos:R:3:forces:R:3 energy=-26135.5295180126 free_energy=-26135.5295180126 dipole="1.8093276392025974 0.4767574140411422 -0.8678800015391895" pbc="F F F"
C        1.86460522      -0.14059255      -0.03798723      -1.68824280      -1.35453286       1.17282183
Cl      -1.87633154      -0.75407426       1.24796191       0.16495696      -0.03559482       0.01104041
H        1.02106460      -0.62160733       0.53900645       0.76989034       0.57521227      -0.34286122
H        2.44201148       0.48474060       0.61916832       0.38030574       0.21665804       0.16083345
H        2.43131859      -0.95498985      -0.47325449       0.36056195       0.13558764      -0.29292160
Cl       1.07697122       0.83275546      -1.25456657       0.01252781       0.46266972      -0.70891287
6
Properties=species:S:1:pos:R:3:forces:R:3 energy=-26134.56933165469 free_energy=-26134.56933165469 dipole="1.1333690129576057 0.12072782604884583 1.246566395411776" pbc="F F F"
C        1.19009858       0.48046877       1.87264960       1.96165438      -0.25769132       1.95011449
Cl      -1.30379302      -0.00567399      -1.20692273      -1.60575034       0.02700644      -1.42054172
H        2.19597500       0.11051358       2.20587012      -0.62694186       0.54293857      -0.03191261
H        0.48489945       0.18723168       2.63269132      -0.44122269      -0.23272764       0.32945158
H        1.18604070       1.55844857       1.84894340       0.12075184       0.49292492      -0.23664835
Cl       0.79061603      -0.20989594       0.38228524       0.59150866      -0.57245098      -0.59046340
6
Properties=species:S:1:pos:R:3:forces:R:3 energy=-26135.339673925686 free_energy=-26135.339673925686 dipole="1.0798744315905684 -0.052807729456459576 1.7723502491752183" pbc="F F F"
C        0.18958827       0.39605492       1.86111716      -2.30307385       0.71920311       1.47729555
Cl      -1.45241019       0.20021461      -1.79775647      -0.02799112       0.04267593       0.15024565
H       -0.22651937      -0.31608100       2.58072813       0.10370449       0.03792338       0.15298149
H       -0.67699116       0.64084172       1.20329670       0.87136423       0.43583826       0.21571976
H        0.66141612       1.20942670       2.44050446      -0.68144036       0.04651349      -0.46080652
Cl       1.39505861      -0.37802777       0.99019078       2.03743661      -1.28215416      -1.53543593
6
Properties=species:S:1:pos:R:3:forces:R:3 energy=-26135.16099367501 free_energy=-26135.16099367501 dipole="-0.7871265945170924 -1.0103376700443403 -1.628525954064926" pbc="F F F"
C       -0.07170611      -1.47559805      -1.09688674       5.30781322      -1.57960900       1.81865696
Cl       1.09486283       0.91201415       1.91584387       0.00613119      -0.13486636      -0.09646379
H       -0.50003880      -2.42535572      -0.84802304      -0.57040495      -0.49624390      -0.01895150
H        0.52672949      -1.10225886      -0.20176369      -0.62528290      -0.71487390      -0.71586305
H        0.70917026      -1.59299967      -1.88894055      -0.71469522      -0.19530514       0.35891925
Cl      -1.09149148      -0.26645738      -1.46064094      -3.40356133       3.12089830      -1.34629788
6
Properties=species:S:1:pos:R:3:forces:R:3 energy=-26135.575701299847 free_energy=-26135.575701299847 dipole="-1.912954795710936 0.8459237315629652 -0.19807768272993695" pbc="F F F"
C       -1.13876185       1.28247813      -0.77849772       1.05274584      -0.53706154       0.03439287
Cl       2.31320564      -0.68760244      -0.03897144      -0.08652985       0.12856752      -0.07911441
H       -1.54578058       1.13877804      -1.78750140      -0.11625778      -0.01259940       0.40136047
H       -0.05299612       1.05174028      -0.78251884      -0.49067361       0.16661459      -0.03574301
H       -1.31592215       2.28120831      -0.39584396      -0.08499023       0.15530754      -0.09062331
Cl      -1.84449802       0.12592839       0.38707094      -0.27429438       0.09917129      -0.23027261
6
Properties=species:S:1:pos:R:3:forces:R:3 energy=-26135.452125474658 free_energy=-26135.452125474658 dipole="0.9196231037078674 -0.47510318755971725 1.7507129243581678" pbc="F F F"
C       -0.00890775      -0.21253386       1.93253153      -1.46789355       0.19994123       0.37068337
Cl      -1.31376338       0.58893168      -1.74738567      -0.06072564      -0.00753309       0.12895028
H       -0.92037024      -0.17763118       1.32840313       0.15993758      -0.10550482      -0.21292435
H        0.05257356       0.76670825       2.42256731       0.29336591      -0.36785319       0.15383119
H       -0.06672505      -1.06057118       2.61603945      -0.11934275       0.33064815       0.33395795
Cl       1.34335404      -0.50351531       0.91157235       1.19465844      -0.04969827      -0.77449844
6
Properties=species:S:1:pos:R:3:forces:R:3 energy=-26135.43361828611 free_energy=-26135.43361828611 dipole="1.413507018016696 -0.33056893348677047 1.5253260832827886" pbc="F F F"
C        0.55157672       0.25248557       1.70731827      -1.43532212       1.17922074       0.70469196
Cl      -1.81660483       0.56043790      -1.51131487       0.03281426       0.00763778       0.16044555
H        0.22796620      -0.31172784       2.57015473       0.30162505      -0.01653632       0.63233141
H       -0.35301678       0.34047507       1.10957386      -0.10716775       0.81169203      -0.21097327
H        1.05012312       1.20896002       1.96719791      -0.66692171      -0.49527406      -0.07307885
Cl       1.60341834      -0.68117734       0.77228238       1.87497227      -1.48674018      -1.21341680
6
Properties=species:S:1:pos:R:3:forces:R:3 energy=-26135.198978508633 free_energy=-26135.198978508633 dipole="-1.9937104427401655 -0.22077836957205865 0.558597712423801" pbc="F F F"
C       -1.57121920       0.66692229       0.73650544       2.91309640       2.55731393       2.98438107
Cl       2.23610913       0.56336662      -0.51943123      -0.11271148       0.07361753       0.07408052
H       -1.91611541       0.74737349       1.76745582      -0.24349433      -0.07803474       0.05553322
H       -2.10026316       1.30621704       0.13957358      -1.63737655       1.61592660      -1.65755323
H       -0.51471956       1.03378557       0.74082717      -0.58585838      -0.20994888      -0.09330877
Cl      -1.57491701      -0.87711778       0.19460172      -0.33365565      -3.95887444      -1.36313280
6
Properties=species:S:1:pos:R:3:forces:R:3 energy=-26135.312029499815 free_energy=-26135.312029499815 dipole="-0.30474977782558105 -1.4432887013148907 -1.447537617012367" pbc="F F F"
C       -0.77792167      -1.57873111      -0.53657481      -1.83948785       0.98017327       1.21671806
Cl       0.14562682       1.47072886       1.88384660      -0.09097375      -0.14483174      -0.06085290
H       -1.76548855      -1.84827790      -1.01561582       1.08382620       0.01785785       0.78475935
H       -0.87308576      -0.74980054       0.21772310      -0.40269701      -1.30189406       0.05894064
H       -0.17566379      -2.39768876      -0.19259631      -0.36271572      -0.66405511       0.57162607
Cl       0.19796610      -0.79377899      -1.67388291       1.61204812       1.11274980      -2.57119123
6
Properties=species:S:1:pos:R:3:forces:R:3 energy=-26135.3029162533 free_energy=-26135.3029162533 dipole="0.666262350816781 -0.5514781553535714 1.934611164028263" pbc="F F F"
C       -0.35599690      -0.33911048       1.67166547      -1.59025107       0.58602035       1.78624588
Cl      -1.09404163       0.67231471      -2.10572619      -0.02746171      -0.03852706       0.15639758
H       -0.79286517      -1.14368246       2.27208696       0.07316003       0.20873079      -0.06495038
H       -0.78946232      -0.23830387       0.74037246      -1.47481551      -0.00848858      -2.08682254
H       -0.41247693       0.63093074       2.13737321      -0.71284406       0.22933279       0.59912528
Cl       1.27137990      -0.53606309       1.39290798       3.73221231      -0.97706829      -0.38999582
6
Properties=species:S:1:pos:R:3:forces:R:3 energy=-26135.26517835854 free_energy=-26135.26517835854 dipole="0.9171536045904048 -0.2655150522289482 1.8938571034545957" pbc="F F F"
C       -0.13657977      -0.07343844       1.72404906      -4.62586640      -0.29947204      -0.59485550
Cl      -1.35787619       0.36395363      -2.07064740       0.00854315      -0.03191620       0.17965640
H       -0.68007807      -0.17992441       0.69840853       0.20845859       0.14379759       1.97817660
H       -0.35396945       0.91853740       2.11984633       0.35308295       0.23669266      -0.18951375
H       -0.50890248      -0.77713213       2.52592139       0.34326488       0.36916205      -1.10010955
Cl       1.44802438      -0.33797630       1.33455479       3.71251683      -0.41826406      -0.27335420
6
Properties=species:S:1:pos:R:3:forces:R:3 energy=-26135.562430183916 free_energy=-26135.562430183916 dipole="0.7638297154624611 1.0895308081154569 1.6194160307989947" pbc="F F F"
C        0.98762038       0.04019700       1.51823289       0.14488875      -1.50793157      -0.22819854
Cl      -0.71239276      -1.56765258      -1.73216420       0.10460943       0.00277491       0.13892761
H        2.08363573       0.04850380       1.67760927      -0.55302178       0.50045887      -0.13684759
H        0.75677207      -0.61869792       0.65691259       0.06053410       0.04714840       0.52251844
H        0.49943315      -0.32725003       2.43598607       0.14664354       0.11152828      -0.41334954
Cl       0.28280551       1.57955152       1.08211717       0.09634596       0.84602110       0.11694963
6
Properties=species:S:1:pos:R:3:forces:R:3 energy=-26135.270250755348 free_energy=-26135.270250755348 dipole="1.546830854500365 0.06244370990412121 -1.4481910804868445" pbc="F F F"
C        1.30909818       0.88031553      -0.81005315      -0.28533018       3.78680564       1.38037283
Cl      -1.70889744       0.24311195       1.73090978       0.14275775       0.07866463      -0.06391337
H        0.81799567       1.57563278      -1.51498127      -0.07189634      -0.11509019       0.50130824
H        2.37214985       1.16067026      -0.85625280      -0.25029471       0.04725260       0.71329014
H        0.78910681       0.92649318       0.19481024       0.81039882       0.30687741      -0.93329608
Cl       1.15220733      -0.64552573      -1.39456610      -0.34563535      -4.10451009      -1.59776176
