6

C       1.448405423863790      0.196123474021419     -0.843413013396017
Cl      1.541563112177727      1.339233737404641      0.473968323822646
H       0.512320168703724     -0.335689631770194     -0.875811376501559
H       1.574814987924810      0.748485299869103     -1.774105893961192
H       2.201300714295016     -0.589551765648665     -0.870483727592159
Cl     -2.154244096773482     -1.400657401724615     -0.088106605629761
6

C      -1.576255358747034     -0.588454811794577     -0.495168863182954
Cl     -0.849444337622032      0.287031685949430     -1.695632208880866
H      -0.941494696502843     -0.589592100111631      0.413972731856063
H      -2.601482832497041     -0.212899471312880     -0.255486053847022
H      -1.749771399824155     -1.626837240195755     -0.820919876993599
Cl      1.533999881604146     -0.018577689148941      1.882238862767096
6

C       1.706186606365264      0.337122227660799     -0.631807673607469
Cl      1.301602966264852      1.008436138321059      0.772688225508460
H       2.560344180624512     -0.294151033286397     -0.471597368664575
H       0.875480189131395     -0.271802611747006     -1.002388701227972
H       2.036675665713787      1.040980740343073     -1.357837119546176
Cl     -2.035292313650075     -1.136165401748571     -0.478100926703036
6

C       1.617430286199905      0.199270209298348      0.882533067215221
Cl      0.201129815221435      0.461495373199028      1.732876207694702
H       2.131589272411034     -0.603201622684864      1.296730419612132
H       1.297272738757613      0.002449278801578     -0.128933804670027
H       2.325419203690174      1.032820582230642      0.865841939217120
Cl     -0.912759452234795     -0.541296762991351     -2.089717176183100
6

C      -1.655162540566508     -0.352442841301752      0.296643796631102
Cl     -1.186925840084697     -1.215544821411143     -1.127558258968165
H      -2.275255125898013     -0.911121876009247      0.935045899220768
H      -0.717305433608402     -0.037730325089214      0.825233104406863
H      -2.156497766052297      0.582585641822149      0.086716421044002
Cl      1.894130581041210      1.345372399933751      0.974532588180978
6

C      -0.256299305357700     -1.924575206888306      0.064517209400464
Cl     -0.580129217845283     -0.830536080774053      1.348816654156380
H      -0.328372771197436     -2.915968815853944      0.348433061717401
H      -1.016163565685432     -1.892819468324376     -0.681761079955919
H       0.683892357812752     -1.653955988083823     -0.366498023306875
Cl      0.685752351485704      1.666375827921485     -1.350776923612841
6

C      -0.450390535251202      1.279953822368952     -1.004556825131942
Cl     -1.021542918829624      1.731277935187876      0.542785840320505
H       0.470859407529929      1.851075457533355     -1.127626598625127
H      -0.159509750310647      0.289502103543029     -0.982542149056655
H      -1.272158053611520      1.564739380583390     -1.672498925044067
Cl      1.201462117206646     -2.270304305784961     -0.094868744671203
6

C      -0.486466054419552      1.457202588145563     -1.192255874501754
Cl     -1.307771737050857     -0.017832724790097     -1.135277042151458
H      -0.848166554122344      2.160526317525949     -0.459592275649456
H       0.510903430180392      1.220897159588503     -0.803056447211375
H      -0.358015731023883      1.827606389089539     -2.222853998954562
Cl      1.492363693762769     -0.624005424472259      1.638339723455559
6

C       1.430438624123497      0.213140375902185     -0.811376660132240
Cl      1.556790587298025      1.325035604599165      0.441407431673881
H       0.384900943079373     -0.335358414256106     -0.790470378061670
H       1.543825705757683      0.615772127803282     -1.753818061878064
H       2.167505710611849     -0.579890168142853     -0.711074900699103
Cl     -2.157918952112496     -1.388735372969492     -0.073936308621342
6

C      -1.357866662558791     -0.882469465970928      0.453472387970848
Cl     -1.663987940766077     -0.506873801747474     -1.078492834334995
H      -1.598391579659165     -1.968199343685100      0.799199678047273
H      -0.244116048955874     -0.710827394981735      0.593740481333285
H      -1.867878304868654     -0.218717073442463      1.159015204316773
Cl      2.229556502259612      0.888263548387314      0.852286124644593
6

C      -1.284549649906566     -0.363405704140192     -0.512625005230277
Cl     -1.173556600991262      0.301552238518482     -1.980317005372939
H      -0.370171601761527     -0.143078544930006      0.086248590000721
H      -2.187968024543011     -0.010252159854062      0.034642875100985
H      -1.398055622287387     -1.500175032640783     -0.448736981608263
Cl      1.721273685775699     -0.131408382502912      2.163324261182808
6

C      -0.946012639739266     -1.192081942470438     -0.940502099629654
Cl     -1.880589696546636     -0.273034760074182      0.021818632535073
H      -1.259095071995901     -1.234986988712862     -1.975397557675464
H       0.117999515439990     -0.709349432454374     -1.029482452965453
H      -0.738547040573962     -2.184028193876770     -0.547411396356040
Cl      2.254559726273456      0.794317912203269      0.397845132116672
6

C      -0.752035570201457      1.332995614484048     -0.345263146743605
Cl     -1.642878141965738      0.373077346022257     -1.414971919583593
H      -0.143182309837471      2.076089839598893     -0.883283421662725
H      -1.378579996374370      1.860863055974349      0.402491305154427
H       0.030420719821336      0.703571196760237      0.252291446120481
Cl      1.940084673778713     -0.956667151682041      1.538449615811714
6

C      -1.477011333951580     -0.204995118423156      0.021031169562519
Cl     -1.613072478038887      0.621173211050191     -1.429372195313363
H      -0.421572092412745     -0.419086875104682      0.224285361335788
H      -1.898056070468684      0.403425453741050      0.821404953817336
H      -2.128056761878796     -1.099123311532878      0.083477235210253
Cl      2.239973734350599     -0.520019490933379      1.390139296346334
6

C      -0.410799710320262      1.296527586502776     -1.129234658614635
Cl     -0.957065808609855      1.664679072166805      0.378100240880400
H       0.139134626862557      2.139886503343888     -1.472993096625217
H       0.198084232837658      0.413843646049571     -0.991969570859013
H      -1.154916087266770      1.051637346289709     -1.860046895954312
Cl      1.119501750106139     -2.206478882523172      0.127480778148268
6

C       0.713421162169936      1.457055851483119     -0.455374996962519
Cl      1.945342228585517      0.489035711157129      0.158923839216797
H      -0.246739761081315      0.926870589064364     -0.429572259110273
H       0.482187554025984      2.443498836266230      0.073078394661920
H       0.868461163236660      1.719143931337271     -1.525581965476661
Cl     -2.218449190691388     -1.127425761811168      0.048879870940652
6

C      -0.133181434970510      0.824553449729734     -1.288378434858302
Cl     -1.838323379041285      0.471240844987804     -1.212998527888246
H       0.000439858746347      1.914943307493573     -1.252457514297944
H       0.425696376070874      0.373443609359271     -0.389738763445081
H       0.317589426433727      0.449211871675530     -2.204971565013210
Cl      1.862299874073415     -0.828454133098973      1.758912732869348
6

C      -1.747457261515649     -0.281592724214548      0.200232710911749
Cl     -1.412350628543692      0.574666497604099     -1.246540511563410
H      -2.364537818526131      0.411595438111760      0.752687723433354
H      -2.159495789220273     -1.246930771418675     -0.095601471062508
H      -0.797353232476055     -0.413555782294310      0.750800840138908
Cl      2.155726287302727     -0.443747105359620      1.138666173622340
6

C       1.443615209920011     -0.166110867668266      0.828813258996661
Cl      1.322378939207653      1.510235626657234      0.620480663771829
H       1.619676323428195     -0.318080141252793      1.872330515480968
H       0.573442825392320     -0.656546133610547      0.504844258112087
H       2.319932669325894     -0.499555733868206      0.320070801024769
Cl     -1.939823749335730     -1.412037231837374     -0.977989820133558
6

C       1.725254103524946      0.293046776398157     -0.647735619000315
Cl      1.290228807102366      1.074823587027026      0.811183102716015
H       2.625933237375889     -0.333882265645769     -0.617621225476753
H       0.839876191422391     -0.294302267390663     -0.948327534089614
H       1.909840376477504      1.090955946350405     -1.386267870924613
Cl     -2.027624633369129     -1.187270933033801     -0.507775856359260
6

C      -1.570126508974539     -0.583745193247609     -0.501697331332480
Cl     -0.863288740067546      0.282332228961479     -1.701679187048981
H      -0.875684240257115     -0.561822715737691      0.376956226879670
H      -2.496431341573327     -0.131025171213196     -0.098667081241445
H      -1.665473410037777     -1.664751107879241     -0.726188170270618
Cl      1.538512412933429     -0.017513518019697      1.884397631716482
6

C      -1.767685213937412      0.335718761219326      0.195417273958128
Cl     -1.199214185153124      0.474534392346968     -1.464694007154691
H      -2.219097921369965      1.290825285706731      0.420711665945248
H      -2.504531030876677     -0.468897706741615      0.329302741225320
H      -0.824115630053853      0.135401992836208      0.759713158884495
Cl      1.955879732221163     -0.615502128577759      1.355555438350891
6

C      -0.369523127645436     -0.626240261809073     -1.535434464458817
Cl     -1.577123096305428      0.526505310079258     -1.233180478180287
H      -0.775025203912364     -1.653714006516267     -1.457264699037836
H       0.147560558247648     -0.436042228846460     -2.507093867699353
H       0.304289071854555     -0.561787565402341     -0.642983804384315
Cl      1.711512469071280     -0.238930474091703      1.884416147085901
6

C      -0.337046830370824      1.241944677359385     -1.248663335011599
Cl     -0.925011229436677      1.650189663410814      0.185694922015884
H       0.359631479576905      1.943039104269744     -1.649617885037614
H       0.246088426403176      0.318830900508033     -1.250961370007531
H      -1.160186279366712      1.047991505378761     -1.923247334576686
Cl      1.054973756487655     -2.165093412973647      0.374533921966147
6

C      -1.584247386211587     -0.112076933630803      0.175306094959595
Cl     -1.610203299771726      0.610221011462883     -1.361764287860225
H      -1.654121822933348     -1.156921350991439      0.083330721684348
H      -0.585761244125024      0.116611184720995      0.572424956836997
H      -2.313485764047243      0.150229544618583      0.871910761164301
Cl      2.276442824102958     -0.546938717627512      1.258929611477612
6

C       0.740007706325542      1.463792352683456     -0.462855177890631
Cl      1.986063155723130      0.541552977409751      0.158079909893829
H      -0.164950770277429      0.931554548083383     -0.200666308453279
H       0.874772953007252      2.403302237939471      0.034201565835261
H       0.855520177559157      1.556462882794548     -1.511589521244318
Cl     -2.281298632728735     -1.176589935780669      0.046456965694802
6

C       0.358475256758112      1.472155448808621      0.888040166031686
Cl      1.824734130406000      0.674790214166208      0.499975505130919
H       0.334587435013376      1.754787158193565      1.886969203078351
H       0.230690391654846      2.265116787098847      0.190304641943683
H      -0.460818224402004      0.764999870817377      0.708243501973570
Cl     -1.949161255596621     -1.309634844413836     -0.880061595962459
6

C      -0.073664633189239     -1.841985102099073      0.323931182516546
Cl     -0.931228828986335     -0.755041233892214      1.305786054438485
H       0.478104343303443     -2.518106700366957      0.868198504977826
H      -0.716923381439912     -2.312795877137447     -0.405597974905575
H       0.628920731270298     -1.271836046614467     -0.292595896955504
Cl      0.945095215518251      1.552661645582575     -1.420372855662407
6

C       1.292338127970638      1.072505319017338      0.326197247933777
Cl      1.834666609980445     -0.381909832393987      0.678696897650042
H       0.178964447465489      1.027696678355326      0.106209765501788
H       1.536164969167899      1.876114524616398      1.078798961881745
H       1.708306395321785      1.427401090095486     -0.601847267135710
Cl     -2.369873847032835     -0.104626793223176     -0.805799348901473
6

C       1.365573251001180      0.537510351124794     -0.625273107883544
Cl      1.711128402877961      0.953939597806595      0.951351407901569
H       2.080855556180325     -0.209224554533904     -1.043736806466626
H       0.365787387464962      0.042532077833414     -0.669006659060273
H       1.311385647145315      1.444702217770214     -1.276288496118568
Cl     -2.280662765001864     -1.172395751441584     -0.654507980084148
6

C      -1.400261708831152     -1.083066937281174      0.391151013631372
Cl     -1.441417657453741     -0.438230005591393     -1.136706192136245
H      -1.635760678073424     -2.150224163908788      0.360814219971658
H      -0.411582136160732     -0.868384809812866      0.730174198212708
H      -1.986339206143981     -0.531028903258999      1.047698325560376
Cl      2.030543041411761      0.906121457317241      0.943365964705464
6

C       0.571926811067073     -1.495882687882144     -0.513233217441311
Cl      1.710506929608670     -0.989772973603095      0.640269119881253
H       0.051251220386774     -0.632619314766131     -0.952181861266368
H       1.207577650483302     -1.980037930795220     -1.298280615670905
H      -0.174213852054876     -2.045768212350808     -0.051851149343591
Cl     -1.935124838401151      1.629060415795720     -0.400912947526464
6

C       1.369279035534234      1.188320706921132      0.628484124467079
Cl      1.615045905406888     -0.423673676672578      0.278562252751328
H       0.283543804019416      1.368350348966146      0.531539150729287
H       1.714514819714083      1.402783290893836      1.688549738469987
H       1.961954824414320      1.834518640601630      0.051719581323042
Cl     -2.191579164970619     -0.109906506953237     -0.556099791743151
6

C      -1.537791005080692     -0.494952814056603     -0.428971642552085
Cl     -0.978035316040192      0.327935575931122     -1.873145665282095
H      -0.697964805889370     -0.668183983899368      0.235562005028072
H      -2.347976072103720      0.087119132777516      0.027696667274284
H      -1.905215756351851     -1.491747816458542     -0.686780523567450
Cl      1.639845574134497     -0.101298808129869      2.030530388124603
6

C      -1.795614264836402     -0.339890717200930      0.292862877788508
Cl     -1.024194945749528     -1.153842886423092     -1.025453698656307
H      -1.936605015773154     -0.962367122673228      1.123767657090283
H      -1.149321313644279      0.449797609358669      0.629133726303820
H      -2.752756135254913      0.108833778888311     -0.012327725871344
Cl      1.798595929087725      1.280483028160788      0.876735101423577
6

C      -1.396804814694704     -1.059141567157994     -0.483013818343181
Cl     -1.301152857802549     -0.677404672019208      1.108559336560930
H      -2.418757450826817     -0.939794579636796     -0.842392230568024
H      -0.875938942466973     -0.354595671111340     -0.993155768447011
H      -0.893146539232944     -1.979027058142705     -0.713013399422508
Cl      1.893490468670961      1.129335673725748     -0.872440045679582
6

C      -1.208234257384689     -1.187861071250524      0.333216484490634
Cl     -1.773146483746388     -0.252902369061701     -0.851422904335564
H      -0.966560280269732     -2.176557131989057     -0.086111649466034
H      -0.269654367942735     -0.786565818231693      0.639620446287168
H      -1.837484513616573     -1.368363963755101      1.216368884839213
Cl      2.269913491378858      0.778531089402406      0.688198647683095
6

C       0.580576645564562      0.003749396309431      1.591628167654690
Cl      1.821359619186353      0.545252292674306      0.680721111729426
H       0.782730597039489      0.331383372075308      2.608374789073608
H      -0.422971762596859      0.320047870212377      1.147070156577115
H       0.585586265735145     -1.068343467336447      1.532723111507593
Cl     -2.044948165049703     -0.534667990170036     -1.370354943134672
6

C      -1.639409850029253     -0.066748952467279     -0.054494083326674
Cl     -1.248907151709787      0.620404238330025     -1.485259476863064
H      -0.715881233596974     -0.207545812633839      0.506342696788721
H      -2.356012926684073      0.535467210582198      0.438637101271624
H      -2.140174994600315     -1.057801643678587     -0.180580476135361
Cl      1.952566317205452     -0.577034958900398      1.481987655095395
6

C      -1.280516766384281      1.145649482275672     -0.157334260012505
Cl     -0.174573385977638      1.804570417148469      0.939265884213782
H      -2.183831436468225      0.828585956790363      0.318780202828066
H      -1.692286891684461      1.753599544309708     -0.995366215663950
H      -0.791479762103648      0.249083124234687     -0.607558343008051
Cl      0.741152391789214     -2.273239379234525     -0.849444747184137
6

C       0.391464171622872      1.311648667655774      0.817488895771930
Cl     -1.273165161866402      1.640322895191318      0.668401202345422
H       1.029594833581100      2.020355362003755      0.344380463295906
H       0.689153127640921      1.199397470834526      1.860445028095143
H       0.625550900691152      0.385100646039916      0.337654341456982
Cl      1.073872371508955     -2.187231342410627     -1.017672818667776
6

C      -1.334351004750303     -0.961928653858536      0.568804071705728
Cl     -1.906066571033861      0.066417598770130     -0.584656712070185
H      -0.244920560031261     -1.014167642891039      0.581409305549883
H      -1.524380110680511     -0.477048054458663      1.496335783022630
H      -1.686979573740558     -2.023966000816429      0.513910666613313
Cl      2.456442322922825      0.359450615989957      0.318245013720841
6

C       0.046119351599543      1.133064638549939      0.862261031170121
Cl     -1.564595770421775      1.690410507653922      0.509639588518738
H       0.898162673971797      1.771032350886117      0.611584952907876
H       0.250392890798778      0.769581256873579      1.907807672970563
H       0.198882440485505      0.247613006255364      0.205697441887338
Cl      1.510656220594981     -2.153591658586265     -0.879273101457869
6

C      -1.407366466369055     -1.062302690906265     -0.503089541501410
Cl     -1.326638308038468     -0.695689840946812      1.154740112276514
H      -2.422751688890116     -0.973571821743704     -0.892332506647989
H      -0.631472468118261     -0.499924825549527     -1.066563878069857
H      -1.178932878857935     -2.128086909853437     -0.639118511338310
Cl      1.923842847381565      1.158023094714920     -0.910412679323159
6

C       1.596447240083506      0.508030783003150      0.499728777034377
Cl      1.451871574590868      0.614345432219764     -1.185455312382345
H       1.936010798260369      1.444188853299877      0.960277107439637
H       0.616762109989580      0.045703933832613      0.852456448745158
H       2.471884612716707     -0.117333398554209      0.764127531832585
Cl     -2.135645413287008     -0.825501923005007      0.942868053773552
6

C       1.693105921270245     -0.122635904501053      0.387560793023141
Cl      1.092026854676973      1.371398882614855      1.029428718832179
H       1.957933219304380     -0.727762846539136      1.213587160130004
H       0.770331743335589     -0.617833515450499     -0.063728322565538
H       2.402133568772385      0.089439616012825     -0.372805111284123
Cl     -1.811556810672499     -1.294129888287443     -1.182835286987128
6

C       0.404388607568961      1.417685079425908      0.888393112301827
Cl      1.778568872642140      0.731785622052328      0.501563467666188
H       0.383755324778051      1.972089808916621      1.883002666054068
H       0.070157494745914      2.211933337857033      0.198670095867072
H      -0.407848361846902      0.672732098675269      0.983805912683664
Cl     -1.916891708716875     -1.350217914757522     -0.889729678550765
6

C      -1.386706518855931     -1.085762608033022     -0.477817182176466
Cl     -1.334055164715508     -0.648783857506970      1.112227109470979
H      -2.226166476628919     -0.610027048761737     -0.980435907985168
H      -0.404389330575057     -0.775160213097251     -1.053319894525259
H      -1.606482199068168     -2.121374181946493     -0.584846257289300
Cl      1.924370152255690      1.116363790382593     -0.875876952872943
6

C      -1.187119037373719     -1.149284215508260      0.332214571230949
Cl     -1.830140652549673     -0.287970499923460     -0.884418051021484
H      -0.808300369098461     -2.162522113764595      0.051417352234992
H      -0.384690950643616     -0.589165021798223      0.801907418424037
H      -1.987601608898530     -1.300593336297879      1.011115192147685
Cl      2.322792963691100      0.792589722154929      0.718844434729107
6

C       0.855384119671413     -1.361778177302639     -0.148982675051144
Cl      0.826737130837529     -0.895282968478369     -1.798856380490847
H       1.831125016455644     -1.091406696741743      0.198466956102934
H       0.083920935362727     -0.869057496774133      0.555170320180409
H       0.786025616095600     -2.481582304952838      0.048248936491504
Cl     -1.193357689422356      1.482981150651511      1.826532815118838
6

C       0.201030436283801     -1.638722002761654      0.409364890071345
Cl      1.414508923909338     -0.576600023172006      1.085525506362629
H      -0.339539473460576     -1.079552910465480     -0.397854339459414
H       0.684968528105571     -2.582198258096682      0.079398109294559
H      -0.471449534977580     -1.848486751409112      1.182876766709157
Cl     -1.479037779368568      1.288504389843411     -1.248803858844539
6

C       0.704986456133014      1.635448909682964      0.780244000705338
Cl      1.248071342407357     -0.007290701515942      1.127010091425916
H      -0.111947247763894      1.943317264757084      1.513641559275143
H       1.583031966774044      2.301609298327875      0.876253553454035
H       0.304984204640888      1.668194474345256     -0.213393857874649
Cl     -1.537432972863073     -0.714960436987084     -1.453256183312106
6

C      -1.099442861230315     -0.007790650657896     -0.116960070933843
Cl     -2.025393388361152      0.686265842315180     -1.390692067049798
H      -1.113212689950785     -1.079365724599100     -0.244641766767614
H      -0.042038488048902      0.271685949603693     -0.107307478978285
H      -1.489054008227555      0.251059699628897      0.894240065189365
Cl      2.473090647428975     -0.667799085163679      1.414900198671447
6

C      -0.685334162788791      1.349543377358842     -0.282910478075095
Cl     -1.646137299252274      0.361619721137345     -1.421684082942292
H      -0.113581748513369      2.004661257306225     -0.871147497941777
H      -1.365419973432054      1.829075706282481      0.423891452978211
H      -0.000323649904061      0.648099765598005      0.113734538425504
Cl      1.920402704162825     -0.946303978640216      1.527021951228619
6

C      -0.452636405656975      1.531681821851492     -0.633486340110011
Cl     -1.597805567231362      0.211791062873857     -1.163681723969532
H       0.297322470053274      1.063147357276492     -0.023856841781182
H      -0.008670166898028      1.985476496332666     -1.567295437531200
H      -0.879928206404401      2.283182834927302     -0.003401300994383
Cl      1.767978260569080     -0.882354998115133      1.423656743433824
6

C      -1.782428787844154     -0.332890549581933      0.303422982163980
Cl     -1.182939504105178      0.564602340436636     -1.074273632792355
H      -2.412956343247885     -1.151759183224982      0.007541301329596
H      -0.891574109207340     -0.761619330754229      0.834593235879098
H      -2.204645959673570      0.399241201184694      0.955013739823244
Cl      1.943503735253870     -0.408760343191929      0.920368445147204
6

C       0.980207515142951     -1.641464262028649      0.055160896881191
Cl      0.680167942058020     -0.771610568875218     -1.449168272893516
H       2.003538885831844     -1.507900048558213      0.257435378340418
H       0.349655278930854     -1.136069901125012      0.747710981922197
H       0.651157123242243     -2.651942545642868      0.032873622284441
Cl     -1.097704149750300      1.478349836759961      1.400963430161582
6

C      -0.497589352440357      1.542637123870534     -0.671411283994956
Cl     -1.580329127812917      0.263340251616995     -1.161402370181989
H       0.311069377455766      1.135308255334692      0.006016967361901
H      -0.025686910495580      2.091085080768778     -1.505307012378339
H      -1.022894144193444      2.235918180421208     -0.058424004381521
Cl      1.769890692913378     -0.941326838456675      1.433179427836592
6

C      -0.588658651447091     -1.299273772509864      0.394233868308731
Cl      0.363768802569524     -1.886842808957326     -0.969858100246753
H      -1.660723617212497     -1.534405563527187      0.302545014205592
H      -0.098625566507437     -1.501609128675597      1.275893311786163
H      -0.543192170711933     -0.186545720203739      0.294805549149231
Cl     -0.098850868922170      2.418688173620851      0.783021067287663
6

C      -0.421373134800220      1.454420647345856     -1.132397537048519
Cl     -1.356048366753797     -0.100648259214609     -1.123629464890797
H      -1.120221180337310      2.224911206495790     -0.891152486670563
H       0.387420116577900      1.386978371344554     -0.368661848432907
H      -0.030334300064823      1.526140942050489     -2.121927852738082
Cl      1.520515310867211     -0.538228501274020      1.603460859611033
6

C      -1.093941951511823     -1.547490085940510     -0.077715601314551
Cl     -1.622335133412861     -0.019728473883632     -0.679341569888109
H      -0.823167207857793     -2.168472841321076     -0.819088487807022
H      -0.060900977112297     -1.408794018413502      0.339227366981874
H      -1.745058989181018     -1.960318683027083      0.677680782881552
Cl      2.067737022585007      0.701499691072229      0.700047913133133
6

C       0.266770765152728     -1.524319171350953      0.237020838945725
Cl      1.588465116101574     -0.777676087585675      1.107692622077977
H      -0.522149460631070     -0.734776996756651      0.191270309422023
H       0.630867803508281     -1.908180097713014     -0.734550247669318
H       0.020809136982066     -2.349878920372717      0.806364565099130
Cl     -1.682534153053552      1.436107011987829     -1.195479550158197
6

C      -1.057348218769832      0.984488482740772      0.031830219310535
Cl     -1.598947246918954      0.418266995831701     -1.544335484059317
H      -0.051858536868778      0.651414391393814      0.178714351051198
H      -1.018476853014846      2.071746765348323      0.096873715872931
H      -1.743917215106464      0.646494304723305      0.715519576759121
Cl      2.037214555282134     -0.847640870905238      1.505369355174352
6

C      -0.244199247066604     -0.293352932886805     -1.823815717272424
Cl     -1.457896391843718      0.492272305605383     -0.785332195720741
H       0.510220380305782     -0.525647535832022     -1.075214212801825
H      -0.499703706780636     -1.189794978080798     -2.325337219431958
H       0.071264158417335      0.475896865547668     -2.513278035583880
Cl      1.538309426481760     -0.357634108413379      1.571425021777699
6

C      -1.254260204278552      1.070100275446606     -0.724277267490024
Cl     -0.746238914405495     -0.323108044809530     -1.763562736899360
H      -0.781807255111545      1.945604162047587     -1.090369702383740
H      -2.299273113399394      1.111481465602751     -0.626956270571355
H      -0.750491883569964      0.807304901017915      0.214555684867648
Cl      1.280149891660400     -0.149339911785347      2.051689301362401
6

C      -1.542967881340232     -0.120783101376034      0.105492071372552
Cl     -1.430502698268086      0.646642452243569     -1.441076964580958
H      -2.080442394395988      0.466528995404488      0.808446155729754
H      -1.949904556348201     -1.099911156382106      0.084115818647319
H      -0.512915020163305     -0.271897482987455      0.428228895459739
Cl      2.082468714895754     -0.579978200854470      1.367778728585137
6

C      -0.133702071722752     -0.931224054614759     -1.424181022096775
Cl     -1.147863255436391      0.453525961563528     -1.509738691906875
H       0.324829545781682     -1.073876310445357     -2.410558805412037
H       0.628363416947948     -0.670750189816246     -0.643655975755067
H      -0.738516535654611     -1.762240118715951     -1.091635377384691
Cl      1.187059355435565     -0.038297367151472      2.110157738908995
6

C       0.710187626733713     -0.274015907792148      1.762844888181576
Cl     -0.736902682425594     -1.094885095961757      1.111930910814451
H       0.930510774246855      0.587858788425720      1.122921876099014
H       0.459557425004007      0.170134000634604      2.686819290518940
H       1.572209793645797     -0.926588361597041      1.746742936858112
Cl      0.412049655583857      1.192519775950700     -1.867204984954171
6

C       1.823666659157141      0.324308077716964      0.470448681611558
Cl      1.095855870096557      0.974755841012552     -1.010705903631305
H       2.155496038591110      1.205030895347818      1.092889795653022
H       1.040260111187536     -0.355866429073060      0.966577743929790
H       2.749422796542973     -0.168206506873787      0.068434938640038
Cl     -1.882789597064942     -1.103998998827336      0.790805062647252
6

C      -0.338907622688950     -0.639080447988405     -1.408397183936145
Cl     -1.509593048849581      0.538603707538542     -1.123033395956938
H       0.179113368668112     -0.449356147310709     -2.347253586545079
H       0.333205259563726     -0.620700960739043     -0.489238226658500
H      -0.856257141328726     -1.589208711194019     -1.409540279122197
Cl      1.634199804204172     -0.246458849806913      1.720953252806595
6

C      -1.406699113313366     -0.458518757319510     -0.437056767702458
Cl     -1.027119730841150      0.363591558848370     -1.969073451580968
H      -0.480963749908256     -0.515731637354449      0.186792395182991
H      -2.096722272579711      0.235168628302048      0.105257092954290
H      -1.814777338337436     -1.453134100890523     -0.793332648438550
Cl      1.628627942906562     -0.158941756845948      2.131408635289205
6

C       0.796477843949688      1.506128672720408     -0.216550978582461
Cl      1.445962865333840      0.568514672816022      1.131884321901651
H       1.478090698646540      1.567715789715464     -1.051949905628703
H      -0.019906532455721      0.882500459502751     -0.673803628855424
H       0.400950062456943      2.525934786436338     -0.075300650375254
Cl     -1.768685084971565     -1.220307951574426     -1.007301630164264
6

C      -1.023271416639702     -1.298059011160134      0.305595244093126
Cl     -1.803749880116186      0.225715190017183      0.476270990215866
H      -1.049963844882654     -1.881463085915158      1.182921718123964
H      -1.528615229238852     -1.848917623698853     -0.471273584383411
H       0.044373613272199     -1.095438497329809     -0.028171672768650
Cl      2.222508472211970      0.351306320381795     -0.599245567069516
6

C      -1.421800194647801      0.869574573984607      0.260056900966902
Cl     -1.480952802077255      0.399114701518144     -1.450221679799625
H      -2.316079979528524      0.486048626401285      0.780185651667352
H      -0.482429436246946      0.511121483541118      0.730313981336906
H      -1.423632694986068      1.952296627944946      0.333148459951317
Cl      2.082734505478143     -0.777606173448206      1.309687385999496
6

C       1.669889095820920     -0.555473282423193     -0.088517463893126
Cl      1.359221406925670      0.692316639407039      1.092282785956925
H       2.582988600557201     -0.407075150315620     -0.603637303347583
H       1.590174060025973     -1.521414692795688      0.361907800670195
H       0.802901055831555     -0.495500702948576     -0.779213741199925
Cl     -2.066496728676029     -0.435189077612606     -1.033261797278541
6

C       1.297423894863883      0.405003676894296      0.798229999644761
Cl      1.942718872412925      0.271291910208276     -0.861264863738910
H       1.604421279410445     -0.365279474119674      1.486194764263018
H       1.675176149801288      1.386423425950412      1.158394606542842
H       0.161604169938414      0.341863490408798      0.723978613727311
Cl     -2.480154404518785     -0.447269644057513      0.495029121732088
6

C      -0.612961201389439     -1.321762389524551     -0.751272766335219
Cl     -0.743261212878153      0.044712504889787     -1.699406674040773
H      -0.339315791641525     -2.264090623673354     -1.269764871277218
H       0.142325990463448     -1.102636931281950      0.005524108935205
H      -1.557595200027819     -1.337102899962716     -0.182584821358333
Cl      1.000832402472071      0.536871392406056      1.995088969804428
6

C      -1.551448580094828     -0.612238383423687      0.074644902717154
Cl     -1.424881157055083      0.631889291145356     -1.070905428260360
H      -1.697497728628662     -1.578493725346931     -0.411723136655837
H      -0.573844143171641     -0.631170286806807      0.597470485716485
H      -2.353714821524818     -0.421430981960427      0.794625186276463
Cl      2.082046348659858     -0.349639954689223      1.017738278975301
6

C      -1.692485736777570     -0.659504580013305     -0.487860944284620
Cl     -0.710673259767020      0.317383204248671     -1.583317359591831
H      -1.147996596809051     -0.685038344632787      0.429484245997202
H      -2.721659474680862     -0.271280726281546     -0.226251642410162
H      -1.788673650212075     -1.655114282106183     -0.838300669741699
Cl      1.445004502190471     -0.019678427651073      1.766669867701467
6

C      -0.288143725886016      1.390167395050511     -1.128500769000865
Cl     -1.597670825972045      0.253635596523395     -0.828702382579507
H       0.488469592188864      1.110991695137173     -0.395158913041442
H       0.094031763230419      1.284305038925268     -2.139117507808564
H      -0.663218557242942      2.389989801252440     -0.941909935001050
Cl      1.697593455903103     -0.860712307653174      1.309898957563050
6

C       0.312449753452029      1.353001646493098      0.856030099604283
Cl      1.672289684501237      0.935463865772832     -0.048961699501575
H       0.383189307303866      0.932830997070610      1.834103573708575
H       0.113649533520686      2.376910749226838      0.922491208018016
H      -0.571149838137757      0.845580423730652      0.507509429560045
Cl     -1.776039430719038     -1.512035587166878     -0.333887230578071
6

C       0.310322492158946      1.160500484619121      0.609197973959496
Cl      1.974403116860799      1.176974906987212      0.160981646500062
H       0.259835068455558      1.565253322441265      1.562659536209551
H      -0.301572012507833      1.735236431782511     -0.073510555376515
H      -0.064102775012032      0.107038165457467      0.663369477421142
Cl     -2.076535613800246     -1.667061210620460     -0.428592802244751
6

C      -0.914359836606693      0.725763943115354      0.425583811246369
Cl     -0.223968837476690      1.921637784188249      1.485112458294537
H      -1.651924316057560      0.060352044546832      0.892084166601435
H      -1.440817694841755      1.317528955626941     -0.289745125004728
H      -0.247228095119141      0.042959302052523     -0.078020254717600
Cl      0.628737973283449     -2.207938425807498     -1.644215434149388
6

C      -0.444360755097961      1.433184059590346     -0.604319815986543
Cl     -1.651216962174260      0.248879790980467     -1.206222404631418
H       0.354625683050600      0.821667596728062     -0.157472151348884
H       0.033861431645988      1.971181487178171     -1.443361004953474
H      -0.917077051559914      2.110946801033947      0.098411491395041
Cl      1.816803300279730     -0.873900947306552      1.453695644350447
6

C      -0.519439994512879      1.299617183021411     -0.640641143831530
Cl     -1.740556806627012      0.155555113081292     -1.238075598850799
H       0.224092717592654      0.692317883187570     -0.023784051385860
H      -0.101560152581541      1.777923103069696     -1.565234465709182
H      -1.018650854202136      1.958117651007584      0.107499053191958
Cl      1.942031588280031     -0.721802997189457      1.497260715865593
6

C      -0.929193766247565     -1.511146976832876     -0.539148790190779
Cl     -1.857049292342481     -0.019034740546687     -0.267014906962387
H      -0.786406285710953     -1.666111381909445     -1.595428867404280
H       0.081997667492914     -1.501825636856623     -0.087494664261499
H      -1.478007343810575     -2.360454699410411     -0.111865236335220
Cl      2.233930014941166      0.688230937744478      0.500720497854530
6

C      -1.316093291992914     -0.408904293636155     -0.402361374931559
Cl     -1.007594864019566      0.333323472794959     -1.919215414637932
H      -0.484962558207073     -0.311183446828181      0.318350429790101
H      -2.187993174688870      0.040522376534298      0.140079694019661
H      -1.539439652447953     -1.473161881827124     -0.481875997321765
Cl      1.573284316164916     -0.145195884456427      2.056208247213434
6

C       1.137779667853707     -0.056903603819819      0.994339118748172
Cl      1.349581585902911      1.482794213627017      0.356028315324792
H       1.237205130863359      0.046899145499637      2.065726229267113
H       0.214310206202384     -0.503734854534585      0.666698938757008
H       1.959457170597275     -0.662776764833296      0.694018659062721
Cl     -1.832067675559145     -1.431678880506013     -0.790354479866025
6

C       0.654779694032428      1.476734390073759     -0.371869109330646
Cl      2.073954907885778      0.478560588886339      0.071035995624868
H      -0.212251354417120      0.921309306795422     -0.038227395749644
H       0.705954765176202      2.383016823844173      0.173119532392633
H       0.578967039858213      1.634096957351872     -1.440100784366351
Cl     -2.326304998696727     -1.119321864820634      0.092071767113524
6

C       0.627144672110234      1.260125615147999     -0.470233878446592
Cl      1.943736856320697      0.524411775456173      0.215396807098642
H      -0.192883176647925      0.509161386943532     -0.496881810247373
H       0.358633697581965      2.037626126394869      0.321257526553069
H       0.897430590677033      1.718552678601242     -1.430873471207846
Cl     -2.186453956947531     -1.072643980731712     -0.010394582811941
6

C      -0.539696803060608      1.490975905548112     -0.930477872280434
Cl     -0.989718385791562     -0.087383728373808     -1.399848592505606
H      -0.339402425857330      2.172137106716278     -1.778897608591251
H      -1.337418259741682      1.891286256802786     -0.310613554103242
H       0.342004069334408      1.342590431237397     -0.325073755227180
Cl      1.210530612893294     -0.571498457991552      1.783765978153681
6

C       1.575096476195725      0.196196104037639      0.656741108485562
Cl      1.653929099948840      0.183441156069748     -1.096295301791571
H       0.506755516109820      0.428819579216693      0.858512115328395
H       1.726572457376079     -0.797580466750119      1.071877185790584
H       2.202034504143128      0.968404252566259      1.054372425599652
Cl     -2.313712714985158     -0.266965892813047      0.788911457657463
6

C       1.429793743331885      0.540401207857158      0.554774097049730
Cl      1.835848812659265     -0.465059744593958     -0.849697410535526
H       1.476162155391322     -0.134673527947015      1.451258078488848
H       2.307415782916905      1.220695871758167      0.695105402733191
H       0.558627520356552      1.123731910799762      0.478861051942943
Cl     -2.443752783138621      0.219130514799318      0.587084772761315
6

C      -1.867451689807567     -0.314458881488207      0.306603021567213
Cl     -0.949075122061728     -1.182784868880034     -0.999091192432758
H      -2.580067526494744     -1.075392954354911      0.652835371864171
H      -1.029921114277357      0.065645969865727      0.968206001860310
H      -2.302318543329790      0.532705933348112     -0.113705304649059
Cl      1.749909195061818      1.302892711055065      0.852349199494185
6

C       1.571874882328856     -0.360009501139771      0.187173558370134
Cl      1.606286989911140      1.167916140293613     -0.729098715738587
H       0.653046537201561     -0.957418991690574      0.118346940018839
H       2.404282229073416     -0.968962276027014     -0.115997856927137
H       1.696987549409215     -0.003781980548069      1.189553421313605
Cl     -2.274048345563102     -0.991056375203598      0.631790412945236
6

C      -1.131828343778608     -1.208381328891988      0.366277233812681
Cl     -1.628191659698913     -0.143367219561426     -0.840999531163945
H      -1.347869970803330     -2.315040819458616      0.148767377288578
H      -0.053453796544687     -1.011816050284224      0.551544731902808
H      -1.679712485361947     -0.917020417478184      1.225189665307028
Cl      2.099279805816138      0.673457387314329      0.662148709047756
6

C      -1.009304019466526      0.939772654248799      0.018370380139885
Cl     -1.649945394014097      0.447896239393984     -1.570288540241393
H       0.074666348263051      0.846738203343506      0.113822675885828
H      -1.262361533126636      2.030232449197982      0.089203225444876
H      -1.699167033829070      0.425242751892597      0.774187754900808
Cl      2.073999207674291     -0.860202035214911      1.536277877298062
6

C      -1.090564138870391     -1.099919334307316      0.352810659490729
Cl     -1.712640497825547     -0.234436897231063     -0.892045480265381
H      -1.195009316030394     -2.239280719457881      0.350078600736737
H      -0.056575543212105     -0.788999103566240      0.473622158836250
H      -1.547183479242861     -0.722012872219821      1.236483321566681
Cl      2.161721579833028      0.713743700084990      0.713927726106505
6

C       1.414556010310775      0.405932737851188     -0.345719977343634
Cl      1.448307776262581      1.145810194018338      1.206536855840625
H       2.329988820915375     -0.213603899978040     -0.445909676344499
H       0.573060853871496     -0.219759952679993     -0.454340035743982
H       1.429311777034172      1.195458507674843     -1.150407854473713
Cl     -2.050769062109637     -1.305016104500382     -1.031092413669441
6

C      -0.096024205666296      0.937832991787729     -1.455277415662849
Cl     -1.735758021178341      0.372475786670137     -1.038276708290653
H      -0.155009505291957      2.034473820151362     -1.327294749252488
H       0.573846157300082      0.603509636007942     -0.675367920205915
H       0.143983041298370      0.600097533806206     -2.428321578078297
Cl      1.752289036225022     -0.782300827636220      1.657339308037976
6

C       0.334992509762472      1.126438913870899      1.052279365874838
Cl      1.649030598301465     -0.032862606425553      1.005143539082724
H      -0.452111320281915      0.732024695047969      0.298570170389894
H       0.030331641014527      1.201735762061091      2.063662615858178
H       0.893065009776464      1.999810922760375      0.647368851789707
Cl     -1.775931885971730     -0.460640856068451     -1.447248078283437
6

C      -1.481978403545966     -0.049383138508148      0.123318179212518
Cl     -1.225695674477720      0.300868490322927     -1.535948835460573
H      -2.127577935721860     -0.919814294132181      0.213332806190607
H      -0.470827008108998     -0.267565255105680      0.600882869124732
H      -1.802764551979493      0.870955308731467      0.611289492832697
Cl      1.852957210634784     -0.275139392691031      1.453633352808495
6

C      -1.459067957603509     -0.253444163782888      0.215339177498350
Cl     -1.504549241706812      0.599839468663589     -1.301912519541105
H      -2.379251926830577     -0.141363057768629      0.867790327894681
H      -1.430261044609523     -1.314535911400085      0.050386206286490
H      -0.507232156916260     -0.017350850448338      0.764518360298624
Cl      2.121647812317747     -0.472077729048053      1.181105881612481
6

C       1.531558715102349     -0.587112197307604     -0.033945363210123
Cl      1.317324663009430      0.763554041388332      1.023513968782154
H       2.278905435437679     -0.307865926781943     -0.776125268387474
H       1.997378578821426     -1.451237835581352      0.489086701088709
H       0.519016092417672     -0.832146068482714     -0.379676316032146
Cl     -1.972591637187818     -0.490950813423453     -0.993055115188000
6

C       0.025587760644896      1.483177889491060      0.625540349611583
Cl     -0.437583759966429      1.421383887395109     -1.090704317233758
H       0.981832296038675      2.049044753423672      0.771548385698281
H      -0.734214407468130      1.911957268770394      1.200145611647656
H       0.109507817693029      0.383314928899608      0.846298792106523
Cl      0.418759576468020     -2.047435258830376      0.798633742594717
6

C       0.206780796299398      0.839951004908272     -1.130884919090221
Cl     -1.232170195103123      0.006532469849333     -1.562482076482169
H       1.045250965471894      0.526590444564945     -1.722192617169185
H       0.073895707544622      1.871736682205977     -1.298053541874580
H       0.415490190066436      0.602162369954982     -0.076342656726567
Cl      1.118473210551926     -0.376437827611042      2.033692803971292
6

C      -1.038150207589496     -1.205208288637621     -0.076977843666953
Cl     -1.667563800335500      0.086674912385178      0.864987778026673
H      -0.870649655377278     -2.056628181689945      0.549648333125518
H      -1.816258346429848     -1.424148884820127     -0.816167230840591
H      -0.139446462610636     -0.765205541906440     -0.648577781749324
Cl      2.099670639362046      0.442400044571386     -0.812886273564487
6

C       1.288288393689172      0.427470833088918      0.363422578226292
Cl      0.776508714357220      1.876507185630530     -0.155597727131507
H       1.387997659637904      0.479056042161901      1.410924468252986
H       0.478806429038173     -0.284116059059244      0.194567915393463
H       2.226257909920079      0.187076294114092     -0.152894893854437
Cl     -1.329384268410422     -2.032203224662041     -0.008839137657944
6

C      -1.708176530744268     -0.071533081551777      0.189351476638251
Cl     -1.051595380739826      0.283053976560481     -1.446610465160319
H      -2.386139582939308     -0.851224099054264      0.158801605124282
H      -0.769551637912414     -0.304741037691969      0.717915729261463
H      -2.050404767001382      0.833423647099707      0.650119843139393
Cl      1.778383901657349     -0.249646200422760      1.339040579099745
6

C      -1.135224234448856     -1.025606674734789      0.402295705033708
Cl     -1.435069391215507     -0.265482006446391     -1.160467817444811
H      -1.376390712659145     -2.060107575556131      0.336632851654329
H      -0.104303477822455     -0.682135393640067      0.645542138680426
H      -1.807543259722834     -0.571210465375287      1.192446725194046
Cl      1.913199761589908      0.707189279571523      0.962329808914120
6

C       1.765225791453076     -0.202691001515376      0.432859414070407
Cl      0.820352326062121      1.267623194650085      0.814873755519940
H       2.241659034839600     -0.656964499104973      1.265106897154951
H       0.893957708105560     -0.906395389593570      0.017218873665769
H       2.463408450167194     -0.025428177594833     -0.338851895016077
Cl     -1.577642717481027     -1.153772137103559     -0.988360246047776
6

C       1.278108614355872      0.770204019842581     -0.299929607601243
Cl      0.716166003408389      1.520258407089443      1.140079519294062
H       2.291557640157848      0.494481609056550      0.033478792132399
H       0.548108117677643     -0.010885903968628     -0.554325281525905
H       1.329792913804951      1.562076836761307     -1.075474706881423
Cl     -1.267764787838374     -1.839382762646892     -0.993068340655313
6

C      -0.512845683903237      1.216331118818715     -0.719480159064759
Cl     -0.992438817582183      1.556231873771210      0.977626810393843
H       0.311976920936885      1.858958149298715     -0.923250375019919
H      -0.237259638068494      0.158270951580064     -0.696923404603808
H      -1.388304509813224      1.374523662853903     -1.275029766932803
Cl      1.203549831238689     -2.064785889398152     -0.651532554668705
6

C      -1.258056943408448     -0.030368343994027      0.047353698699425
Cl     -1.370938378812241      0.313855604143896     -1.610247958550346
H      -1.893962722119070     -0.934338895409297      0.264719434162245
H      -0.151468489222907     -0.211016522999159      0.323726605017086
H      -1.624037148172562      0.863857410568357      0.606879011989335
Cl      1.901526419818410     -0.295562115522870      1.560215435936584
6

C       0.207314557694758     -0.834772934078671      0.926494633955301
Cl      1.050898043323357     -1.889288017633788     -0.208296831943841
H       0.882072247533813     -0.416000727578790      1.623984566607518
H      -0.265400562910486     -0.019745313055125      0.388008457772003
H      -0.563127321927922     -1.398761705574131      1.414934053769713
Cl     -1.122661876047431      2.224284957532134     -0.203056328654526
6

C       1.337612551953384      0.601180328690177     -0.212168451807955
Cl      1.732707098860615     -0.810663484298416      0.785134293052664
H       1.712247560950416      1.405283500407648      0.382846062748285
H       2.030329242452225      0.533480099818334     -1.039584326756838
H       0.256848708943153      0.659395875297946     -0.402914990874237
Cl     -2.299631930396771      0.533097287423189     -0.683117769622896
6

C      -0.298086976402004     -0.572245243827581     -1.233329776979971
Cl     -1.658231801049084      0.560714135436584     -1.285565234659046
H       0.574161322006645     -0.140925482126931     -1.822713176470259
H       0.145719483098205     -0.621263008780872     -0.236051146507478
H      -0.590801468636343     -1.517400863121409     -1.713923818216315
Cl      1.755557913951890     -0.302009941008521      1.810710329091478
6

C       1.271311767406715      0.453404349678692      0.240912004789138
Cl      1.415405502638990      0.947635091755672     -1.426919028652577
H       1.389130483220043      1.306005836874618      0.848391281239373
H       0.242381593996214      0.090953533361784      0.313290235780983
H       1.858091983284808     -0.384340433303294      0.567805695587978
Cl     -1.945370143860629     -1.130048618763311      1.296117415117081
6

C      -1.213897092676419     -0.907232663815705     -0.506529071567485
Cl     -1.278105743079706     -0.693939696360857      1.212676423779371
H      -2.225485844637163     -0.800381806620763     -0.883163567330371
H      -0.450168382113077     -0.228343757612038     -1.023811378272200
H      -0.898217735563591     -1.902142086429308     -0.736349022187596
Cl      1.791013526384290      1.084661448602276     -0.965895288712247
6

C       1.070588473456212     -0.276092077872747      1.121248351870832
Cl      0.192795721807698      1.218164396769424      1.402381212026782
H       0.990909912034269     -0.880099580308283      1.990950093519714
H       0.623929119937941     -0.780567677705335      0.259487082317847
H       2.092405248188939     -0.012043909843683      0.968320508400964
Cl     -0.660940725731109     -1.077057632184705     -1.873800724016419
6

C      -0.475291089141351     -1.249475431212716     -0.433304880131928
Cl     -1.746089733316182     -0.332215457714454     -1.209555639241700
H      -0.832935952547885     -1.414558275880509      0.575900937135501
H      -0.306725932790499     -2.163221087455725     -0.977450034339554
H       0.404073765861085     -0.643639367490763     -0.236975482571324
Cl      1.928041611908881      0.875590337403295      1.374522005720607
6

C       1.187724503728091      0.539369763521151      0.907125612239454
Cl      1.393804029414497      1.366280414685463     -0.717255467223580
H       0.598755929470855     -0.350149783193643      0.651137546236541
H       2.115663041478115      0.280091779102278      1.367844368019078
H       0.573875943074128      1.224196783076763      1.506047781917189
Cl     -1.889723924692746     -1.581844367262903      0.309675335704526
6

C      -1.378424453524076     -0.036614631151792      0.102445076742796
Cl     -1.251606340031174      0.309614429492214     -1.563813379182434
H      -1.817481722910372     -1.093448903457286      0.238089961822823
H      -0.423433629081018     -0.041792611520620      0.567107100638523
H      -2.068796354626244      0.693735591457028      0.582038150071725
Cl      1.841181671809693     -0.284654872209501      1.489658205388594
6

C      -0.865596971567470      0.784086279301050     -0.008257488755035
Cl     -1.544692010646955      0.384958163862777     -1.534722029159809
H       0.134819601742507      0.296547293159520      0.040854861354134
H      -0.908835451496117      1.845718634365937      0.164455604832497
H      -1.430627974793566      0.325273075503617      0.884983781624342
Cl      1.900657206715763     -0.720781566281360      1.506517913381060
6

C      -0.574021368032490      0.587544615526610     -1.169009785423128
Cl     -0.619788352192884      1.956042922811704     -0.041290023934394
H      -0.372652477009666     -0.368194004677932     -0.648449178193431
H      -1.521689749775021      0.503383092377916     -1.679322141361695
H       0.221628851559444      0.811819136042118     -1.913429922532572
Cl      0.861838161323035     -2.182039612984440      0.557964421247291
6

C      -0.853530073141485     -0.834482103207392     -0.099355256877772
Cl     -1.901200412197298     -0.127572632848569      1.078969154118965
H      -0.696390640965248     -1.926135196068969      0.055601362423729
H      -1.347611429832611     -0.776703464472959     -1.099228058512935
H       0.094784635019025     -0.286025212619023     -0.340221384334825
Cl      2.245814259412199      0.495294475606556     -1.005957169480723
6

C      -1.438516099533615     -0.258787755123748      0.209820048784735
Cl     -1.417228841545196      0.572835459031964     -1.240973796673984
H      -1.978728136810119      0.171062528008832      0.998655665431428
H      -1.884067877138577     -1.262007293386091      0.201548334043522
H      -0.348882734287997     -0.366563481574900      0.532570835318623
Cl      2.024376628561271     -0.443710831677464      1.120613129835476
6

C      -0.433186341754066      1.413687201361469     -0.597642580590673
Cl     -1.548422092333993      0.237876226437692     -1.134158412170819
H       0.338555527413263      1.002602486487746      0.077979159585595
H       0.128577422425380      1.902186611414919     -1.347314050324812
H      -0.980700605020687      2.215490778786119     -0.039713389093052
Cl      1.709795219195229     -0.862447145796040      1.373870843808191
6

C      -0.993877815196797     -1.197645934612339      0.013510327032165
Cl      0.578774246808649     -1.896654874830659      0.580497354634943
H      -1.374224866497784     -1.835583289299933     -0.791248416736934
H      -1.672413591664210     -1.183282038302849      0.906337168350433
H      -0.772653076965298     -0.100142231819888     -0.286480899459562
Cl     -0.133433984305512      2.391122715184025     -0.580201423829749
6

C      -1.399605562327395     -0.038374925288750      0.098411485800113
Cl     -1.267052798710026      0.300004012331200     -1.526481884884930
H      -1.824942452969424     -1.011431609093179      0.283897652063430
H      -0.371838911387556     -0.084648049814334      0.540849095048287
H      -1.995120625203313      0.681935894927179      0.622835640216366
Cl      1.860454762450217     -0.275226067571424      1.451977416552822
6

C      -0.066702646345220     -1.455453661159211      0.184693490424166
Cl     -1.025300387920282     -0.986832387819589      1.576705464296523
H       0.732158471445061     -2.060795171210017      0.472683195306061
H      -0.697776432397944     -1.996512392037417     -0.501281306006518
H       0.288448701766654     -0.514928879644899     -0.289062976928648
Cl      1.038720757412875      1.609971125721373     -1.630249925147140
6

C      -1.125167602651999     -0.500225281564497      0.686822889279398
Cl     -1.804954570683037     -0.175023125928277     -0.901924130816525
H      -1.275354396793517      0.380106938929458      1.327512391332789
H      -1.595648360588882     -1.356638614140223      1.109399306683756
H      -0.004869088614228     -0.702090559634982      0.514583440958390
Cl      2.267952226429642      0.392237711812484      0.585294037072572
6

C       1.366218258175365      0.699110323388581     -0.100284882372392
Cl      1.738267414201431     -0.887452039665789      0.564777517969148
H       1.094247705505992      1.360779883250245      0.673996974321469
H       2.053904197427926      1.056288323302226     -0.809847325547750
H       0.437590302877297      0.505215507509845     -0.679249850015353
Cl     -2.303121452068922      0.567489385843658     -0.507622575091133
6

C      -0.741884759029304     -1.122762858644123      0.332030440217565
Cl      0.556166947938550     -1.862887998706100     -0.538807210163938
H      -1.662536018319756     -1.153984274316926     -0.203244306969793
H      -0.992043781739810     -1.584811414218223      1.366386947580551
H      -0.496203358915380     -0.086580715301395      0.513240334701379
Cl     -0.215214415782100      2.323635082210828      0.378643270627464
6

C      -1.207245933216100     -0.047564043019094      0.048549711517040
Cl     -1.367979585249344      0.301293682324058     -1.564371920626215
H      -0.230881202950840     -0.480557696361799      0.361911228432007
H      -1.257771174556581      0.800138214896080      0.692904341285285
H      -1.954341038807527     -0.770849010738644      0.446706014403063
Cl      1.874912399565375     -0.272346704585118      1.505227651463315
6

C      -1.304341680908109      0.736048795454423      0.269321453604661
Cl     -1.346915283640740      0.274872135584005     -1.476261228534881
H      -0.310285902111616      0.485503959961861      0.699094069959827
H      -1.476465673472475      1.810692325787116      0.221594731061913
H      -2.058873466797223      0.291621825360792      0.834315900552454
Cl      1.898194210921602     -0.597839772768822      1.335108486124952
6

C      -1.429552908792516     -0.509299043884738     -0.330132153329359
Cl     -0.736073684234555      0.390795141737087     -1.702120762618222
H      -0.674315725890992     -0.379565417727264      0.483168411742213
H      -2.428230505723562     -0.097712216707990     -0.129246768267336
H      -1.509381653878336     -1.560015302960437     -0.597845485978610
Cl      1.351565455633249     -0.160307635474879      1.820910396662839
6

C      -1.851606144609633     -0.339941887346129      0.317856612758305
Cl     -1.019727325152402      0.532249116553885     -0.983539729849767
H      -1.862491125950783     -1.331752279078103     -0.039250804721348
H      -1.177174662358638     -0.353275116010664      1.206901018543434
H      -2.841624102272860      0.083058680197013      0.504212267305959
Cl      1.814310727482820     -0.371520584155419      0.828306636568627
6

C      -1.621500825610738     -0.219131744709657      0.231972783591260
Cl     -0.968871578933445     -1.272969195648969     -0.941968987795931
H      -2.353932674628794     -0.785143880351370      0.874685253210615
H      -0.819575166743121      0.198425367546463      0.817800434709895
H      -2.129549913064508      0.657428063170059     -0.227611774993775
Cl      1.669050101722746      1.345203784053467      0.821720242860934
6

C      -0.100948675935896     -0.302857241279611     -1.517688861495571
Cl      1.541007631635836     -0.389856102398525     -1.015589652152556
H      -0.306103171882640      0.467146505462836     -2.307613621379261
H      -0.418574930755355     -1.274939577933651     -1.857129048114203
H      -0.740964238278281      0.131985435311918     -0.666188041764826
Cl     -1.465130000428260      0.511684943675377      1.667170444038902
6

C      -1.527489060128204     -0.090632645099106      0.022056060719152
Cl     -1.208138412266678      0.651627555773487     -1.546711364444363
H      -0.558028803503561     -0.060011755810393      0.628063523328819
H      -2.375694025576010      0.362657052937777      0.447072910144684
H      -1.823283404133122     -1.172747516013430     -0.065640124909450
Cl      1.860937661470601     -0.596178987736181      1.510533998454790
6

C       0.244055080340573      0.904311133136758     -1.190221705096789
Cl     -1.197872792734117     -0.033364416950363     -1.460284333207227
H       0.952752937785533      0.617186476398928     -1.906700099414593
H      -0.017141071913485      1.969683439013011     -1.252408478726949
H       0.599344950749682      0.678239977219960     -0.144061846891788
Cl      1.071537615269335     -0.365871458702060      1.957473294796785
6

C       1.100930768481192      0.225925099868306      0.066320475327785
Cl      1.417172911437447      1.187276112772253      1.448488932933927
H       1.624836935058340     -0.734098936121015      0.190140285233028
H       0.093379873253099     -0.083038191168583     -0.086251225084112
H       1.487802331250123      0.785590038401239     -0.799104662455349
Cl     -1.881346303620958     -1.262925955054854     -1.451191271496327
6

C      -1.364534897504967     -0.037530423545306      0.085048184187940
Cl     -1.440861280234415      0.337816191713785     -1.714874597048322
H      -1.873653847589708     -0.915687431548349      0.243561054362416
H      -0.355201598982262     -0.169531842728404      0.366552062080558
H      -1.838798400636009      0.764528159958772      0.601925222147344
Cl      2.018847845309665     -0.315981648401063      1.651595376016459
6

C      -1.212418484576062     -0.034656971783150     -0.016623891505574
Cl     -1.466880721309579      0.339913659769820     -1.772202087369536
H      -0.204353902672977     -0.451197641447223      0.114188379287157
H      -1.261653094233580      0.911978491314457      0.547978455260903
H      -1.937916951781077     -0.744983496961154      0.330113432792061
Cl      1.974455157374990     -0.320090213892342      1.749619606449798
6

C      -0.609671410382958     -0.509920152325336     -0.803097249833542
Cl     -0.808252654407312     -2.148582798402970     -0.214120129694052
H      -0.006395256085895     -0.641424554135554     -1.699181492321429
H      -1.601739290052450     -0.142240272974135     -1.014721573555335
H      -0.049476317662908      0.158899387268022     -0.083316094233183
Cl      1.061951809860645      2.339116353069798      0.565759000812292
6

C       1.376705613277608      0.703613055563892     -0.927441162140482
Cl      1.688020604080208     -0.172106117442951      0.631785592098268
H       2.003359663259118      0.363761642692239     -1.729250709119526
H       0.291727244913062      0.632874656149383     -1.174890593681766
H       1.710992185074005      1.713761552844034     -0.842286215330475
Cl     -2.268379950965098     -0.143357280155840     -0.211026925335332
6

C      -1.323669551397842      0.962678612023183     -0.654233346979652
Cl     -1.252746344820679     -0.848982959704358     -0.717445797332900
H      -1.370015833828077      1.299844642834614     -1.679444066898597
H      -2.173504396998922      1.199319830081805     -0.036915278111138
H      -0.353254831463559      1.126013213371877     -0.147748149954595
Cl      1.812028269915970      0.419732976155998      0.992114826543002
6

C      -1.671476049121992      1.092729173896174      0.044292645627422
Cl     -1.098831876058441     -0.462071490481392      0.578934070986875
H      -2.361106935155178      0.997734041878502     -0.787375625969702
H      -2.089123713640305      1.622654330600753      0.882992879940417
H      -0.765456273259787      1.561815266958632     -0.306044224264781
Cl      1.813458427354206     -0.027080311386626     -0.587957726292245
6

C      -1.459868116420196     -0.279522064038517      0.273091973686064
Cl     -1.385017170811409      0.630112099325942     -1.205764998998092
H      -1.603702244116050     -1.329232630815952      0.077544654777384
H      -0.486101964115946     -0.243626725830254      0.786778003108353
H      -2.205553897607075      0.174461475231226      0.901709270906736
Cl      2.001778719951304     -0.495643140915973      1.063021194197944
6

C      -0.704830814506778     -1.002135785416669      0.124639773599071
Cl     -1.758447267567846     -0.139772665596155     -1.002447602264311
H      -0.296710373494051     -1.794020324553742     -0.517603510310224
H       0.094890366997618     -0.420907836149610      0.656924093584891
H      -1.276193010612090     -1.407591816576044      0.891537598460260
Cl      2.039281119028658      0.582315770130393      0.930905899362003
6

C      -1.270776660253503     -0.134040863666115      0.163206176096580
Cl     -1.365248541141199      0.662329763507415     -1.475442883128153
H      -1.893864762503298      0.458243338326895      0.722308968821991
H      -1.659482696811025     -1.175109452460134      0.066458863897054
H      -0.247185741270130     -0.158071617797034      0.628871034744407
Cl      1.903872968009864     -0.592036334811226      1.379836413184591
6

C       0.964559934568271     -0.016103699801945      0.559157197288940
Cl      1.769369253068305      1.272368444865492     -0.240843509270960
H       0.722057660440527      0.186468179429212      1.592933452837201
H      -0.067815625466267     -0.177346218321873      0.139927253533713
H       1.563213056641231     -0.894878163105702      0.441423111668570
Cl     -2.159228889357408     -1.241726306926552     -0.010431954346018
6

C       0.316684404668322      0.935111470458025      1.088643820725082
Cl      1.745618556612555      0.653725575240955      0.115268754268314
H      -0.032815738440831      1.947908464491135      0.870184168074189
H      -0.473866594507840      0.329538811359441      0.542975893366133
H       0.457967156381713      0.665734915252116      2.126720717602382
Cl     -1.851530869348579     -1.054243248592243     -0.584772301687352
6

C      -1.246554397428369     -0.767858017256444     -0.272211146220798
Cl     -1.273747046773423      0.739846990144756     -1.269026457004472
H      -2.213281680765363     -0.819443977185813      0.284709800931637
H      -1.177041798122289     -1.690274336445341     -0.835327732473345
H      -0.400843139699617     -0.641380871684191      0.371707963391430
Cl      1.803898268749407     -0.390085336433430      1.366342940083541
6

C       0.934522629095397      0.992051377456619     -0.479035815233885
Cl      1.534280997763958      0.194327513234697      1.006820401708140
H       0.159183883738393      0.293293951160706     -0.982752336973789
H       0.336654007960618      1.829041088391392     -0.241242180370662
H       1.841495424692937      1.264498359866494     -1.126625694397589
Cl     -1.917372204561914     -0.626752256852328     -0.777677260658507
6

C       0.669594067834026      0.947518368207326      0.598514755095707
Cl      1.776719524343932      0.585415506904567     -0.602527251745883
H      -0.395475612364621      0.713438942920860      0.396054275274111
H       0.869520116356313      0.318827628610279      1.418497305217514
H       0.871331229060047      1.979290072071450      1.010836624957378
Cl     -2.041843165745078     -0.992081013739252      0.319403075877119
6

C       0.117245138877749     -1.051361224108391     -0.386029501607226
Cl      1.769780451148904     -1.076321246535613     -0.028975654920913
H      -0.093164334596835     -1.089780429281802     -1.491955603868902
H      -0.477707498590490     -1.795726932046989      0.179026316203604
H      -0.363046765957961     -0.123192603033800     -0.084619865177757
Cl     -1.782949461448567      1.518089066756858      0.199506822477218
6

C      -0.616633741141030      0.639518328546487      0.865196879532718
Cl     -1.880189819725032     -0.593226405878440      0.846614086669575
H      -1.056699873021643      1.537336503722855      0.508684490557144
H      -0.255884630710867      0.693342891979384      1.906218232220752
H       0.155493965326841      0.351195762775916      0.086802581605042
Cl      2.122015916412110      0.303133745683297     -1.210890494762324
6

C      -0.851217318402675      1.246648314737939     -0.047416017890740
Cl     -1.304687899200601      0.131097280714172     -1.359646669057582
H      -1.595320572589401      1.029299211953713      0.738067890638078
H       0.099168088910517      1.025132936779684      0.400409221382731
H      -0.821085053544365      2.241228778253728     -0.453535343534753
Cl      1.658982586051252     -0.675625323668214      1.356236019925021
6

C      -0.395793170248496      0.365481634047555     -1.031845929521054
Cl      1.122445351739685      0.868757547683444     -1.552902385774118
H      -0.686189314058595     -0.606267790777835     -1.411929869708544
H      -0.250463716972746      0.246610809501462      0.062217587235807
H      -1.193929535087307      1.114449464685364     -1.207267331368016
Cl     -0.927762728481483     -1.014050375040881      1.975213723157182
6

C      -0.754283062500676      0.772608266979958     -0.567210369560073
Cl     -0.156918978969273      1.859300501883865      0.557723850534884
H      -1.807478615700163      0.734220609968048     -0.780241991647927
H      -0.417657922064180      0.950186529020286     -1.620569345439534
H      -0.364319484765815     -0.224542555545071     -0.473653052271004
Cl      0.486111236639388     -2.162582346589261     -0.283810624772997
6

C      -0.496095382110184      1.102590300905717     -0.575162230132847
Cl     -0.921019795185842      1.393749752024476      1.076526358757803
H       0.395561352083320      1.551301098422755     -0.963609494503743
H      -0.325420458166533      0.090208043880850     -0.709865277297283
H      -1.291457050860217      1.230046371485670     -1.243405276660170
Cl      1.123831877575796     -1.848975141645894     -0.798712857065993
6

C       1.312667081155226     -0.016838260890566     -0.686987523926945
Cl      1.327994193077544      1.366958273096017      0.412516451947567
H       0.352119512264892     -0.639664070811364     -0.480940435447565
H       1.442798729541792      0.152652932561878     -1.698988848263483
H       2.198932604640163     -0.656750980931818     -0.474403481717204
Cl     -1.886308606758064     -1.328731007434740     -0.104280215630567
6

C       1.268248233321515      0.065217786924549     -0.795864148719346
Cl      1.338351987708037      1.290434063212743      0.496407894128552
H       0.308027651541053     -0.351049669810379     -0.670413931587575
H       1.423291805947173      0.557784409571326     -1.805840832126663
H       2.090111861324729     -0.599243682365298     -0.545343365916139
Cl     -1.876713970776834     -1.301370080832129     -0.140839623185371
6

C       1.163906561924890     -0.566313446230211     -0.377774280457857
Cl      1.842022596986581      0.640818589399927      0.732393323201919
H       1.631443066771212     -1.552902747951919     -0.083186391441458
H       0.110992412569075     -0.578251728215633     -0.315596701199851
H       1.439847734792167     -0.342265679543289     -1.427142271270498
Cl     -2.326858230135414     -0.378612712964781     -0.552478523500852
6

C       1.651687142093252      0.004318685241358     -0.000576957622556
Cl      0.736818698089138      1.086665031456008      1.094369562308614
H       2.155406788058812     -0.761301480816869      0.601617130316370
H       0.823477914625556     -0.453447901965461     -0.589890063443491
H       2.178994676736082      0.638077394321982     -0.715673975754925
Cl     -1.443096742606471     -1.071730937353493     -1.074157761965637
6

C      -0.950368411580499     -0.816295330724017      0.438712321001177
Cl     -1.934648174022072      0.202889419956293     -0.601159975115124
H       0.153002190505433     -0.579372564349882      0.306250356246082
H      -1.135991223073901     -0.649282895379955      1.475903558758262
H      -1.025302476541583     -1.877772929208248      0.133302353865488
Cl      2.313752062108861      0.162013345442148      0.398052680148552
6

C       1.476186383442055     -0.365152527068247     -0.236726325720895
Cl      1.245094891161898      0.562845475001509      1.281009910660913
H       1.765837046896252     -1.333191138679425      0.048453442930594
H       0.502530041794728     -0.381826453763537     -0.872249778492204
H       2.162188159884522      0.238318637521516     -0.774014732950633
Cl     -1.871229569359002     -0.397137166138918     -1.155370603036275
6

C      -1.506152161478894     -0.123105366789758      0.071979719129885
Cl     -0.868660823969222      0.581055319736052     -1.362944464859353
H      -0.642405163221511     -0.654156674951750      0.582280720169678
H      -1.812789601415290      0.624346563449720      0.737825361182473
H      -2.289974240572604     -0.851490538458137     -0.181846072677473
Cl      1.513894222242143     -0.514286078109222      1.306190882483790
6

C       0.215290346596731      1.055016911798404      0.895287199287381
Cl      1.729068610887808      0.694076134081939      0.222707805896249
H       0.336148322986091      1.156443222893472      1.976353279917348
H      -0.216414373848906      1.928282841174834      0.472453620430016
H      -0.472849262142503      0.222335317123466      0.561605617498500
Cl     -1.791971632537027     -1.145566289225869     -0.611644064531731
6

C       0.970665797523921     -0.142851845294771      0.320347058004160
Cl      1.702485294767015      1.397438988858980     -0.088550193627157
H       1.337173801343994     -0.887042185632851     -0.404439619884101
H       1.245646716489659     -0.456550340026808      1.312339338150380
H      -0.133004443837521     -0.032112325053021      0.232572831233895
Cl     -2.101020738960173     -1.309921245463968     -0.052416938772978
6

C       0.045760208303349      0.695663630513124      1.184911086968341
Cl     -1.338757363186062     -0.335950055912150      1.443985269763587
H       0.314617579480696      0.802852503468401      0.122495154326856
H      -0.166701490354427      1.639407393849126      1.655709262005971
H       0.976244353774263      0.266251744749525      1.583269370829868
Cl      1.291288263372934      0.023233677878380     -1.941032735011461
6

C       0.769717782549520      0.522025137482984      0.758428103918533
Cl      0.976824145154936      1.708526446800136     -0.477262568911669
H       0.483724499876217      1.037610514374833      1.707124066580207
H      -0.005391078926351     -0.220679242069536      0.534254901696499
H       1.773368306415094      0.042859987906624      0.772903786658190
Cl     -1.301642075405596     -1.909844176464546      0.134586208597398
6

C       0.404868757383710     -1.404267951634978      0.246226761848291
Cl     -0.347624949413202     -1.283120017124332     -1.388300892513470
H       0.494125899595915     -0.352554092669223      0.622846583312338
H      -0.168061009730607     -2.101823605214548      0.849701252080024
H       1.411547232787868     -1.836996333082396      0.036800830912284
Cl      0.161041263529697      1.880930098656123      1.261958069038300
6

C       1.377108836335083     -0.401919065206982      0.312287148040738
Cl      1.266048547525330      1.286217811980322     -0.028690344715315
H       2.205232315842480     -0.881992889005758     -0.123096019570809
H       1.456714608803594     -0.637983019656360      1.350475225206921
H       0.418766213003238     -0.851873170818592     -0.025838763704243
Cl     -1.848666687891239     -1.082599370109577     -0.111282397191133
6

C      -1.028025055723205     -0.163403897038052      1.173452966595121
Cl      0.355808407999817      0.865021219439669      1.374334040463665
H      -1.194595097066312     -0.948168112090713      1.923511348047782
H      -1.880240097369509      0.454642743024365      0.968232682706628
H      -0.896399748024848     -0.708676853154842      0.170478499050176
Cl      0.105421881599341     -0.775473573534939     -1.858990285648929
6

C      -1.236213979219826     -0.470646620157154      0.150627964725928
Cl     -1.371759150591842      0.685789398137246     -1.176570367002313
H      -0.224391311888169     -0.474346392133498      0.582548412116481
H      -1.963681832854405     -0.230776051801769      0.903556362050381
H      -1.444750151793983     -1.473355473626171     -0.219753939803027
Cl      1.893904481686832     -0.464383409544610      1.089527373339067
6

C       0.351070699587638      0.838889382205181     -1.312859697307942
Cl     -1.145909796952253     -0.013530781931934     -1.304749737702352
H       1.169691931985838      0.299911595012603     -1.753834704194389
H       0.265570604579651      1.726723119665081     -1.832135011366205
H       0.545448693005227      0.966919394943758     -0.235807412076795
Cl      0.970641331729240     -0.355817678213768      1.858236597195301
6

C      -0.989527954318447     -0.446740717238583      0.585546036384713
Cl     -1.892558086476356     -0.185654939170448     -0.880938670977571
H      -1.299906060427034      0.251634246048297      1.341162359702764
H      -1.208358398843700     -1.509947946881766      0.820274515444908
H       0.055856820300448     -0.236090637727941      0.471932574031939
Cl      2.297558006346605      0.379510011893245      0.607668435496905
6

C      -1.568291192778744      0.287589604095260      0.264554854443958
Cl     -0.981806890832715      0.421182359410452     -1.412535489392852
H      -2.068893789530563      1.150097941050419      0.660142782286798
H      -2.269195777581473     -0.544962973129529      0.400964887812719
H      -0.630914485433834      0.053267713334037      0.776555197429502
Cl      1.654458558009878     -0.537343392908127      1.270647406820373
6

C      -0.462708511025909      1.299671511205545     -0.608936957599852
Cl     -1.637643301726513      0.016604784465159     -1.123579807106523
H       0.388538836722148      0.828605201773101     -0.160748482251890
H      -0.142773745707231      1.768474930001958     -1.483597464607300
H      -0.996863073512515      1.928622449362024      0.067597213683044
Cl      1.815773025063265     -0.585638993855156      1.374730851416061
6

C      -0.026852670730946      1.305399114876209      0.503495280461749
Cl     -0.284667729528167      1.391657419356051     -1.219978706632205
H       0.795034170423520      1.869471005320960      0.818477928021451
H      -0.929059317217252      1.694441976533952      1.051583425760867
H       0.102105835068727      0.232079004687122      0.684446395299801
Cl      0.294673430356568     -1.941883334481972      0.976750903396677
6

C       1.221705094884086     -0.244367460893059     -0.857602142360989
Cl      1.298758184995805      1.167180415218240      0.128757905522022
H       0.372423626867302     -0.846300943328117     -0.687109108898483
H       0.954710339942721      0.075477691643755     -1.836066994318557
H       2.142267243036656     -0.837076389847468     -0.769960566657744
Cl     -1.811340873689119     -1.038665311933343      0.255449177556429
6

C       1.137432740580522      0.422827663035008      0.842186556271344
Cl      1.648314254660193      0.149125132135538     -0.876156265687072
H       1.642464126940510     -0.380219301363496      1.337926766013467
H       1.408220769800693      1.394572744592764      1.158765705850286
H       0.064091602967210      0.229565228958094      0.925938130858100
Cl     -2.122260639958341     -0.327755684527034      0.493490133813467
6

C      -0.342259395456580     -0.756902737673059     -1.021625602900414
Cl     -1.215964098422873      0.578391917293288     -1.435468339630049
H       0.420612882504585     -0.537198739499473     -0.254037892656939
H      -0.975219380648440     -1.463633685492837     -0.535751338693032
H       0.108497494900831     -1.267614644277131     -1.835235123244189
Cl      1.344611643531422     -0.229005360790737      1.856251687045216
6

C      -0.780620766823759     -0.891203098612905      0.282299007167595
Cl     -1.804237824961291     -0.140029972517908     -0.893624905044433
H      -0.470841398277642     -1.861777352857274     -0.227434702134786
H       0.010392609524629     -0.181363047773601      0.445332540099542
H      -1.335808512248619     -1.075828804129756      1.162946833772594
Cl      2.119799556688506      0.530669221483691      0.758714191244664
6

C      -0.379489480857316      0.932479225945585     -0.457793177619422
Cl     -1.780697322633529      0.132368124689975     -1.253285557459989
H       0.060614364382658      0.234981098973549      0.252251765315606
H       0.304093620814641      1.204873932623883     -1.222799290603547
H      -0.740009871572411      1.827964498095866     -0.063331706776239
Cl      1.919945628868859     -0.541224826206559      1.437790610275428
6

C      -1.098220534718820     -0.033223912552685      0.072854629843690
Cl     -1.397722304634968      0.324295115204777     -1.625083182919752
H      -1.625814937974056     -0.965889622740207      0.380521345265080
H      -0.046814389629986     -0.186831996926287      0.324556181380345
H      -1.417356023216101      0.785116143883798      0.741264109874251
Cl      1.857678075470929     -0.302585701008454      1.559273046709137
6

C      -0.387425723678604      0.880954922544831     -0.450576047112676
Cl     -1.846001607757628      0.367655611382645     -1.365267073254643
H       0.293001884698398      0.157679243684612      0.139382550230621
H       0.369915229656513      1.297758917578150     -1.146060271877531
H      -0.717074896605283      1.655005138852019      0.293939540818300
Cl      1.978807289326369     -0.754580193080912      1.538195394499951
6

C      -0.211708948471951     -0.624365673272536     -0.890754729496052
Cl     -1.305309573016089      0.477571390633813     -1.618748739385936
H       0.224043117700276     -1.326156118769887     -1.602967642184510
H       0.499744650395996     -0.102376791168510     -0.307153080088185
H      -0.794682930948866     -1.219709304063755     -0.127953417725834
Cl      1.379055652120499     -0.190725572484595      1.978501455580457
6

C      -0.962760523632568     -0.363470077869565     -0.296745561995237
Cl     -0.998648370093932      0.301976849423070     -1.909154772195009
H      -0.067021669879836     -0.081936137702627      0.214323943612470
H      -1.839403188414195      0.100725804876703      0.243154998973125
H      -1.001801272439991     -1.465405889410405     -0.392975551946890
Cl      1.407540008715401     -0.137693964872838      2.007862572684701
6

C      -1.049789170766360     -0.292603078943415      0.113755760559698
Cl     -1.867663012071546      0.549223439064519     -1.275890445215566
H      -1.516513925095722     -0.019997662035536      1.073800906046927
H      -1.223188872739911     -1.343456854561609     -0.052791664963195
H       0.003930847215187     -0.074610156979759      0.241363282949479
Cl      2.301137648356416     -0.409194531528442      1.201453436913468
6

C       0.358446407304058      0.805760943790958      1.237381994821234
Cl      1.741229914250795      0.933332103030139      0.062145525125672
H       0.737071752574664      0.217997585363563      2.060344954144099
H       0.016959643087375      1.835224437286442      1.509354741922891
H      -0.443023064462849      0.290514800145829      0.723786185100181
Cl     -1.871520357014660     -1.272978969412421     -0.603472151585862
6

C      -0.627544834777581      1.389889523869343     -0.219629080217942
Cl     -1.365575500449921      0.075792747600744     -1.238251928059327
H      -0.277014668997452      2.186523561340792     -0.804432666565077
H      -1.306082647730278      1.763828576767821      0.519516045109199
H       0.152498306100568      0.872109776718659      0.265609485460843
Cl      1.618875495181214     -0.683832371898077      1.313214593096845
6

C      -0.955680919134451     -0.531193659115559     -0.251701908149030
Cl     -1.493161620817588      0.692382760630011     -1.372708920673603
H      -1.524439280168551     -0.500192335683025      0.692250253675212
H      -1.035281025470780     -1.500020440758746     -0.785476163814707
H       0.104043779880115     -0.431633595221797      0.087345898548762
Cl      1.886786598467438     -0.443258129254161      1.458156555947568
6

C      -0.019812084949891     -1.398133459169387     -0.016636303914439
Cl      1.556473707197043     -0.867710114824661      0.341559733586848
H      -0.042936227381460     -1.993199904371195     -0.902125946939080
H      -0.418714387804144     -1.889214870664645      0.826664978386702
H      -0.615306012039227     -0.510264705110600     -0.317159490949720
Cl     -1.519138439705500      1.466322298014262     -0.324759167451589
6

C      -1.357169175998848     -0.477663846595149     -0.286599575788756
Cl     -0.811344295602510      0.368277080550854     -1.776908130312677
H      -0.515019834531728     -0.418178169592281      0.454127185361202
H      -2.252843702301831     -0.100515634405468      0.103031942081358
H      -1.537191567673787     -1.479099457602018     -0.554037618906634
Cl      1.393585607824335     -0.149631211181401      1.873923674013469
6

C      -0.235524157306088     -0.258211880491416      1.219414432077855
Cl      0.760643568751334     -1.683349682938584      0.881180769496709
H       0.105487626268740      0.098120707176705      2.138645108534249
H      -0.182408572448495      0.448685697986832      0.390638262046423
H      -1.270638241085180     -0.649651180527087      1.294076543660992
Cl     -0.642527339860862      1.773760132308070     -1.403051955314567
6

C       1.004735396727355      1.039618622656278      0.275575980946002
Cl      1.833986316243269     -0.544069313450734      0.616778178887046
H       0.043885790300877      0.875079165075576     -0.149903049491286
H       0.916790722504047      1.639152796741158      1.223503362890256
H       1.594594630154177      1.535202248727629     -0.455930320879091
Cl     -2.247063612779087      0.076687396357570     -0.727710603699521
6

C       1.123162704278585      0.402609679400925     -0.181050991643104
Cl      1.221890904643885     -1.190626135834037     -0.859202409020583
H       0.078547519665520      0.696362715498225     -0.367477867033955
H       1.241105756904915      0.329971385441866      0.865957885361695
H       1.728611693421584      1.120896921357300     -0.759888343705441
Cl     -1.689111167855245      0.993160586334454      0.927978235610297
6

C       0.949937959030891     -0.740840211336973      0.465726010210119
Cl      1.353943326375131      0.952895364024357      0.870357382922734
H       1.023297855754024     -1.234535291751087      1.447814517513038
H      -0.099101165436977     -0.722037238628801     -0.009041734850200
H       1.701916586169787     -1.133904883708524     -0.260948503916524
Cl     -1.750468770905982     -0.614011499094389     -1.061643193405388
6

C      -0.479784094167869     -1.031456934916278     -0.502671681947120
Cl     -0.734509796656127      0.067713394276993     -1.765379422896075
H       0.500980512998950     -1.486225220309123     -0.668888615068695
H      -0.303824723661123     -0.539226528698677      0.487835661733740
H      -1.132046554265727     -1.940856462623373     -0.507035680197930
Cl      0.923651027857758      0.394539579562277      1.955257643332445
6

C       0.316751370690127      0.548296774332698      1.050642461496480
Cl      1.664637216807094      1.003634428020604      0.019628901714853
H       0.726654072996311      0.088167150776229      1.913725836817534
H      -0.224363966735211      1.385304514214312      1.373662790097740
H      -0.397149239466856     -0.070633577489133      0.489890563029348
Cl     -1.774947025187544     -1.229294607109821     -0.483007294620336
6

C       0.990225616979814     -0.276926191379133     -0.479891358780705
Cl      1.642976860338621      0.978530602740534      0.674523079955776
H       1.470527579960162     -1.179870993874673     -0.128131561973930
H      -0.118118986524578     -0.302641746036585     -0.362890104558176
H       1.465018864346646     -0.103435719571408     -1.401252485156448
Cl     -2.058592283836219     -0.839608274621682     -0.458122869653465
6

C      -1.006030333703052     -0.029545597945670      0.095678173448292
Cl     -1.273860176549633      0.303139047793991     -1.555749849546956
H      -1.300890468917203     -0.997338278438818      0.320634130719014
H       0.039029911795183      0.073487708489949      0.261264138201739
H      -1.580747204477248      0.674767122412035      0.723973704073742
Cl      1.695546466022080     -0.286046007115829      1.486200921759476
6

C      -0.296543384893397     -0.016820790466795     -0.553964047922122
Cl     -1.651103912571244      0.323915812949764     -1.625760669878389
H       0.223711487656644     -0.917124070114838     -0.731597183345684
H       0.364883587271095      0.795353446822403     -0.561476640274009
H      -0.647457070463872     -0.093929427670219      0.505507573405239
Cl      1.753251034925384     -0.312083368220087      1.835846113032375
6

C      -0.526001097733598      0.752464997078164     -0.034186766555777
Cl     -1.494386637158968      0.324993155887725     -1.437388920445031
H      -1.192743530219389      1.147860446128647      0.706996344229410
H       0.078723073659219     -0.064643573338245      0.426132197530094
H       0.089457176486576      1.583405070992725     -0.224002397566792
Cl      1.701736678659515     -0.655763593101810      1.423121447941611
6

C       0.112776416786986      0.449066870416331     -1.194529381200795
Cl     -0.853642149671458      1.678827526923541     -0.372654902064426
H       1.082676080130085      0.920660214661140     -1.403507074027871
H       0.100010832990833     -0.517245727774494     -0.551700490059318
H      -0.539278610703221      0.319613734161649     -2.086924087639531
Cl      0.797136843300095     -1.851537107385766      0.892315299879456
6

C      -1.359302404884204     -0.301124821542132      0.321066490063473
Cl     -1.009074407172278      0.621966953793120     -1.127954667649504
H      -1.333319537993589     -1.356864202002498      0.079223773077956
H      -0.572046977233839     -0.080317092548924      1.021273167307740
H      -2.333697048641099     -0.031194678315700      0.689724959628137
Cl      1.590162059004257     -0.478188866002114      0.968268538245653
6

C       0.308793456533209      0.548212991777774      1.065979916645517
Cl      1.674209594937381      1.002704045017239      0.007337094547637
H       0.702772159775620      0.072992897370128      1.982830765890341
H      -0.276744730561944      1.501704903587694      1.235353954041514
H      -0.396181042726539     -0.105854422988557      0.520629977550769
Cl     -1.779682186305465     -1.230212659100076     -0.474818335560087
6

C       0.509878737984366      0.604826990868034     -1.067289347908201
Cl      1.741109134883075      0.679064829083515      0.207702713188780
H       0.983541117484066      0.679424170654400     -2.044396047228673
H       0.006286047928057     -0.329157549990313     -0.923355154002280
H      -0.228420148875756      1.462915098169717     -0.903905031267257
Cl     -1.935513980993079     -0.935546187613895      0.263999454373518
6

C      -0.880701780351075     -0.723345050730941      0.583089754648341
Cl     -1.696298350091794      0.123845038835640     -0.748948879780613
H       0.185387751986880     -0.790169994804188      0.403404150708283
H      -1.029244590344632     -0.080831378038155      1.396539945392959
H      -1.318454956523865     -1.700594837993407      0.820126980861318
Cl      2.056177598978550      0.194357115885126      0.476889001398121
6

C       0.198330814320627      1.094694978879460     -0.510672468996702
Cl      1.800098450647980      0.797111561402573      0.343818914699455
H       0.410239032476426      1.189668450397335     -1.544969003065646
H      -0.362083051884198      0.171207110797042     -0.388282583757089
H      -0.399525474574133      1.898488541624118     -0.047552608745292
Cl     -1.857304965764271     -1.260689005886675     -0.114472295397618
6

C      -1.378066573304324     -0.196415230017521      0.287937639700317
Cl     -0.996262041819236      0.595742038948444     -1.301161282347735
H      -2.456506679425289      0.175457002272452      0.482528369474224
H      -1.344119651140488     -1.251964016738256      0.316060025893819
H      -0.706134016836913      0.230830592873659      0.973470429072236
Cl      1.591319081089765     -0.505147253032902      1.153216168512003
6

C       0.230268581003642      1.015440000098707      0.699365965386548
Cl      1.850990059484445      0.517345789626049      0.378886763422500
H       0.103698070788766      2.046149618006865      0.310524353259240
H      -0.498500663168954      0.368563043158588      0.061884862134193
H      -0.228977699676378      0.919662289081728      1.715505484104398
Cl     -1.911271734859397     -0.956203329570698     -0.675211238100957
6

C      -1.263631236309877      0.196561112493910      0.314862665443215
Cl     -1.025930976480780      0.433718995664520     -1.444153668431952
H      -1.307635796560348      1.223104627053118      0.676215629957923
H      -2.199873659688762     -0.218713431470263      0.561313253137371
H      -0.365385699992231     -0.245683017134070      0.833256777272410
Cl      1.564191994726457     -0.521890317696716      1.278591823007716
6

C       0.924554686007042      0.235185431636907     -0.905605579463398
Cl      1.477967362022426      1.070923913300476      0.704198634770108
H      -0.034741644893018     -0.221591901548962     -0.663832440632447
H       0.673306633257084      1.010936748812583     -1.587149457493538
H       1.625621940639334     -0.313885042745909     -1.396173440494735
Cl     -1.855601403152662     -1.164127741293285     -0.293660942350854
6

C      -0.870483940167020     -0.927943879696144      0.216319271499344
Cl      0.674255202587091     -1.727042639882924     -0.129780922338099
H      -1.801941150313027     -1.475409316906436     -0.142732724044464
H      -1.060792191053451     -0.895245243301190      1.250283642406345
H      -0.839762126624777      0.119022104070140     -0.135356426022270
Cl     -0.274043692373212      2.105468012374203      0.028844876689078
6

C      -0.405309023132915     -0.047368432565548     -0.776829310619405
Cl      0.837073115323179     -0.615979738666738     -1.884559947686796
H      -0.290957452081628     -0.623793829363677      0.163348200775587
H      -0.301753446700815      0.980599148555982     -0.432589902604619
H      -1.377964336112370     -0.307500957417290     -1.112554733501085
Cl     -0.643713247519983      0.630626944502424      2.187052124179360
6

C       0.117398922275783      0.628242461819923      0.945284007720360
Cl      1.819755217170851      0.046010815481637      0.798906448066603
H      -0.396991845332565      0.412669488589060      0.006655623953989
H      -0.290820276851193      0.041280055096550      1.803619736209868
H      -0.072129026789312      1.674634577025927      1.161373417850385
Cl     -1.837923278589443     -0.319393974934258     -1.203680162734216
6

C      -0.854135161610714     -0.935614661792201      0.201763799022217
Cl      0.680772781575797     -1.875147764403195     -0.081112746843999
H      -1.696079606836250     -1.481590378162537     -0.305606162496744
H      -1.124874940342991     -0.963283270702647      1.219250353692019
H      -0.721560895928121      0.136544048473112     -0.078852664482724
Cl     -0.290649424939474      2.257784264825816     -0.010984710108985
6

C      -0.342710939912067      0.846716930364920     -0.426588386874172
Cl     -1.754906086504548      0.125639072625233     -1.234616015571405
H       0.295953788197153      0.096057019987427      0.141741570732819
H       0.188620067678386      1.326164808205348     -1.191799937040244
H      -0.709337650574909      1.470935689389108      0.342497351217247
Cl      1.877412800308221     -0.494784906992976      1.399269742453129
6

C      -0.555752544349346      1.326942406444843     -0.172231987252914
Cl     -1.370935632137090      0.071133551024616     -1.249951913100972
H      -0.336733901465138      2.186764481114793     -0.771028891507171
H      -1.329018738232662      1.713176065944197      0.535021021357068
H       0.266904829522744      0.850312011365205      0.357483647572749
Cl      1.599008478479433     -0.655792502299676      1.304852641316828
6

C      -0.176269739070264     -0.260275808566888      0.982958893244373
Cl      0.798271432711729     -1.720576994289928      0.775495122088444
H       0.472193044831002      0.473922997135858      1.465668937952955
H      -0.431997068525874      0.175428911454844      0.026243257338464
H      -1.121470105781285     -0.388506359406065      1.600669490847451
Cl     -0.707803163078850      1.801345412431516     -1.196472318319422
6

C       1.115084097856183     -0.428323192199016     -0.166597758733502
Cl      1.395482119716263      1.369884531178414     -0.352305011385397
H       0.049289779949376     -0.557754452636402     -0.223856831826964
H       1.570134998672515     -0.924635635949144     -1.012488486603189
H       1.259486564101806     -0.766118753544049      0.839322846632641
Cl     -1.855149756749128     -1.160827076330236      0.420039971377506
6

C      -0.500567544054846      0.621037071324849     -0.105820482685445
Cl     -1.586861755839649      0.429825749467653     -1.461000910667906
H      -1.080853425853348      0.870166078894940      0.781124897759469
H      -0.065120388689465     -0.377646225876916      0.187275495462359
H       0.360413724512355      1.306575778789920     -0.370499201186490
Cl      1.778798606118727     -0.691398800540895      1.479853531710560
6

C      -0.814849930292027      0.782975273562087     -0.836972018004303
Cl     -0.640268135033565      1.471111240476858      0.745439216217775
H       0.013383063067806      0.127674215003253     -0.897446443848892
H      -1.803724883387574      0.256132751198706     -0.961730746129234
H      -0.806442284588215      1.551468763086149     -1.635631201675366
Cl      0.990189739842734     -1.791423622589036     -0.362487516160300
6

C      -0.290028235376425      1.007624781355858     -0.505978479880582
Cl     -1.096203091135607     -0.104872030979806     -1.534894702798113
H       0.717908638399493      1.253458657568174     -0.921779610056163
H      -0.899769051249876      1.889276563118855     -0.382339992057851
H      -0.144545382958427      0.508927085064570      0.442028908037500
Cl      1.203750232948892     -0.340359474043126      1.730840963488518
6

C      -0.957506829293393     -0.077182033406615      0.093593015327428
Cl     -1.508675792570102      0.648676879271093     -1.475458833858127
H      -1.595592962036775      0.270193070186380      0.986220777808015
H      -1.055564629926579     -1.125882489389426     -0.009425903904898
H       0.107921394761107      0.157486920435574      0.348110404997541
Cl      1.905409124401487     -0.602673451287927      1.406075188491997
6

C       0.268212011332977      0.053583191195145      1.356039917045848
Cl      1.757982751168100      0.437231587964433      0.479570322217640
H      -0.586733353286817      0.086952694778660      0.682013075390259
H       0.295650191534946     -0.915410563747116      1.673363262604425
H       0.137392632537896      0.720286617131578      2.196430367060742
Cl     -1.844486965968457     -0.452310603129277     -1.068445261634665
6

C      -0.959691179196355     -0.253500009206391      0.061596973247745
Cl     -1.690829927868506      0.684374264495474     -1.250628703384947
H      -1.459771162272631     -0.181642349804051      0.985307949537997
H      -0.997946273586422     -1.331333538540363     -0.244364941239454
H       0.073219858456383      0.098891198772776      0.226529818740985
Cl      2.083789710981307     -0.558275929441393      1.202249187014388
6

C       0.325935064633526     -0.810560978445920      0.625731079870164
Cl      0.989498780635742     -1.559968034122278     -0.852417055321936
H       1.023428536817022     -0.855061179093767      1.437546648121369
H       0.013814114897571      0.247935068656815      0.340832405830142
H      -0.632103493157885     -1.347766377906908      0.829335989649962
Cl     -1.111450440244710      1.890184664315939      0.566260982987046
6

C       0.399078649351338      1.177879723992646     -0.053752452237049
Cl      1.036583847068400      0.674155917511925      1.491607395891350
H      -0.388246131931012      1.829621320278306      0.145985575782476
H       1.091520411507659      1.747919890787614     -0.635074889605548
H       0.010248270455136      0.338857468732073     -0.601456892174255
Cl     -1.192086368585763     -1.184600014383861     -1.442386203240773
6

C      -0.458827471894608     -0.958079002436008     -0.283382459444155
Cl      0.132320636619411     -1.557197718586465      1.285109737835199
H      -0.711119926677824     -1.778549133656000     -0.840580856993327
H      -1.234034392494593     -0.269800278767093     -0.150323886568643
H       0.365858369326958     -0.341936011260657     -0.644597645158413
Cl      0.068043455972131      1.949775845676214     -1.142590890776972
6

C      -0.569628685523782     -0.100782326533036     -0.358174654008337
Cl     -1.123042734827493      0.282474884933094     -1.917497456214292
H       0.356136956057242      0.459391968729477     -0.085047251416213
H      -1.317411679365790      0.119914558035688      0.397105655872991
H      -0.484816199456517     -1.130225100905207     -0.278799541728944
Cl      1.357160359424711     -0.232663250328841      2.037906788673084
6

C      -0.550181870478625      1.228409798421055     -0.192397652521507
Cl     -1.329624176241381      0.070452300778697     -1.208998023144915
H      -0.253371841125514      2.118222683877121     -0.752480197548280
H      -1.142152989677882      1.523733251665092      0.644175122619146
H       0.415452651893901      0.721824505470252      0.230645445223573
Cl      1.543901953467298     -0.610737795091126      1.270706601739505
6

C       0.275522656743505      0.207545559397744     -1.333022078982879
Cl     -0.239528662255580      1.703549763768123     -0.586222301340456
H      -0.585901738239585     -0.182139556263522     -1.892870096225977
H       1.135942761078837      0.447499808034735     -1.932105915521262
H       0.482538766687128     -0.544229751177227     -0.515125685726289
Cl      0.116816587277086     -1.765939869791382      1.161278738624389
6

C      -0.291777190166300      0.604063384253251     -0.338128587516138
Cl     -1.790627229020558      0.453979976233683     -1.343486217552282
H       0.107110090938662     -0.300191792002423      0.040890556443514
H       0.568789860375063      1.033024486515501     -0.849705730306425
H      -0.574193030508198      1.294187507643940      0.471138329508094
Cl      1.886593808848914     -0.716282985318003      1.467650977037920
6

C      -0.533534876216180      1.000779004585752     -0.016954391813670
Cl      0.528784803230920      1.424445088164575     -1.283508573475601
H      -1.573326218802990      1.256730345295523     -0.209033291818841
H      -0.589894339975061     -0.016017612831860      0.279250664685051
H      -0.234442380986735      1.530285650637524      0.957185105583065
Cl     -0.279838917715708     -1.842315976577694      1.260039391579895
6

C      -0.562187814459278     -0.988020458032437     -0.222896795113613
Cl     -2.044632300442743     -0.041486720789464     -0.517292858411679
H      -0.310680310928305     -1.602844850244395     -1.074563598155137
H       0.260450515669447     -0.296398709916190     -0.073852945784736
H      -0.661070613231416     -1.497761179881351      0.680133516440264
Cl      2.255335506401238      0.472834943621280      0.606129041707277
6

C      -1.353931843366055     -0.064105119350373      0.217002240683485
Cl     -1.021345755723445      0.292838627568401     -1.484312507811680
H      -1.894490369709132     -1.009803763588920      0.291547323818122
H      -0.352136714886640     -0.131362420395462      0.694515809563882
H      -1.941764991309753      0.783848416224686      0.673569898430429
Cl      1.599172965404151     -0.260958715060127      1.363598149309112
6

C      -0.336250909615529     -0.813486703326774     -0.509624952859909
Cl     -0.914210966326209      0.003408652667247     -1.878255252261326
H       0.120581285923237     -1.772884073094147     -0.748530934348466
H       0.445780827366235     -0.335604129296840      0.091633030286360
H      -1.089281109747702     -0.962923892484753      0.221857612056240
Cl      1.043006792103952      0.359546839160416      2.063294065325991
6

C      -1.297210395451444      0.211249598840098      0.316657797861467
Cl     -0.964548533602837      0.418010341399409     -1.415602899982886
H      -1.428450808487739      1.225694532358716      0.667460139974338
H      -2.187622111139021     -0.464983939828258      0.480664728081663
H      -0.406963311568219     -0.260796651997822      0.787391895152410
Cl      1.518455856051688     -0.503799683676618      1.253279128264182
6

C      -0.781610853956991     -0.861837560361707      0.385767141260985
Cl     -1.568415283689291     -0.140883906544829     -0.944958766882351
H      -0.398699486672541     -1.777663831673479      0.019916438163008
H       0.074693541586413     -0.231080110247134      0.665277972541716
H      -1.413400863671043     -1.076273318080055      1.277192248875423
Cl      1.882639092719032      0.520608260157971      0.758455667120927
6

C      -0.527383125138996      0.714633490751467     -0.083584140379955
Cl     -1.582160038618738      0.388344478179761     -1.485276651892306
H      -1.197808006731933      0.809282705284076      0.778521798202007
H       0.225458142032238     -0.078610837699756      0.174808926209778
H      -0.095246859464908      1.652303145463677     -0.164127558705374
Cl      1.791201962850110     -0.698231690325585      1.491155701795577
6

C       0.265966778328050      0.220131158683571     -1.331841072885780
Cl     -0.239521371672183      1.716809848511858     -0.593858586190322
H      -0.515946854008362     -0.225352215295729     -1.928644861906463
H       1.132114522846933      0.464778383463965     -1.950455232191018
H       0.633023350494085     -0.569151542961265     -0.601152465010216
Cl      0.113887760332645     -1.782018090237031      1.172499988334550
6

C       0.317980721730891     -0.439294974623138     -0.966440549173285
Cl      0.434998997228476     -1.960177994477363     -0.041275759357219
H      -0.126915654422291      0.336293476280673     -0.372251001240173
H       1.336824160378370     -0.144995108950738     -1.171662315367584
H      -0.149825639479360     -0.652846133137658     -1.934515537892665
Cl     -0.572878545271308      2.122141664100255      0.467627627381390
6

C      -0.436407497075848      0.959193557087659     -0.155192533375697
Cl     -1.577830361546404      0.245154960426817     -1.387032188963332
H       0.212495911888340      1.670507310584000     -0.644625190205730
H      -1.008793432856848      1.405803806139559      0.596039083359528
H       0.258182397526426      0.174273175890818      0.119056557846676
Cl      1.740992857789252     -0.662572810388369      1.437609997250135
6

C      -1.025636544096002      0.833962588692998      0.144476433847629
Cl     -1.100356233188592      0.003002830423526     -1.457767774675503
H      -1.483776211744072      1.814858378259245     -0.009557879514119
H      -1.638807757719633      0.182421623660360      0.743251251490747
H      -0.069973801710717      0.746185866673898      0.564171776168223
Cl      1.538636029083676     -0.363570905129748      1.371912922312333
6

C       1.301989591815584      0.218057325821363      0.011370507403612
Cl      0.302918385176909      1.574349154163940      0.615910032969637
H       2.333332587080108      0.652281960739955      0.074818271515454
H       1.295462160041993     -0.622815519137319      0.732014987808896
H       1.000574973843328     -0.149173932513150     -0.932313824739452
Cl     -0.875685710029657     -1.644826485323378     -0.616194567651931
6

C      -0.301081156573233      0.278679312198960     -0.285640784459005
Cl     -1.611668442427316      0.185880987088026     -1.539536992597220
H       0.667276662598056      0.266088988761013     -0.751804923223716
H      -0.262294134828480      1.223036107729698      0.298095107367644
H      -0.295367014545448     -0.568433442228653      0.364959134137081
Cl      1.710562471602799     -0.306481111384727      1.638840015144709
6

C       0.089561143394818     -0.326619421799350      0.392893553645749
Cl      0.860146012741140     -1.830284810899315      0.920534694887507
H       0.792751894550378      0.146777546872926     -0.195893139639139
H      -0.882233908847994     -0.524521663886617     -0.169660201905614
H      -0.083563171475546      0.251062485588434      1.272715945658248
Cl     -0.885570253814677      1.944550564346642     -1.079447653358216
6

C      -0.193119893038158     -0.097969248606717     -0.528273345506747
Cl     -1.526372446185434      0.674499056823407     -1.461351836076602
H       0.424336960153227     -0.781305667800325     -1.104940543854227
H       0.548112921029855      0.585400052422358     -0.154581736986970
H      -0.600696400883223     -0.577466655635561      0.347238601543182
Cl      1.581233815075123     -0.619315195209964      1.666279145007863
6

C      -0.389058710434583      0.046274841138811      0.436522751355014
Cl     -1.099354690943628      1.560057771357307      1.058297370440357
H      -1.034568432034163     -0.823380251783760      0.617499753178151
H      -0.147363787239058      0.161355751213847     -0.643521872716221
H       0.566645487679764     -0.232367089198704      0.849557389107957
Cl      1.248669026528248     -1.550304891087393     -1.229614671378343
6

C      -0.196863899860375     -0.627894593636810      0.476765311536411
Cl     -1.467284397427349      0.084137525857528      1.487975978039785
H       0.724017307751964     -0.407581833292923      1.062320603645958
H      -0.269785561777041     -1.678989899479276      0.353882376289590
H      -0.145395261802918     -0.086371248910567     -0.453317968006061
Cl      1.525203300817395      0.190389088802775     -1.676890399729174
6

C      -0.402999169080204     -0.901808005011972     -0.375003995117538
Cl     -0.713132177652753      0.073265908463128     -1.836508567252963
H       0.097222642717881     -1.851643062955361     -0.532221674160184
H       0.103377575031345     -0.283781079109417      0.358835318547605
H      -1.381227727696455     -1.172047546289775      0.050806654945376
Cl      0.883244887098442      0.326326402116806      1.967051115169170
6

C       0.425245351421211      0.438844196636595      0.725144299878011
Cl     -0.278701242451845     -0.751452985342127      1.898349209237594
H       0.377134604250557      1.351719660237563      1.291786669375938
H       1.416200226755137      0.124636592471248      0.433752431210223
H      -0.120610096088214      0.392243257126125     -0.204485664671623
Cl      0.087058691007059      0.549633353417875     -2.187289408087764
6

C      -0.304522258830232     -0.467848840496046     -0.200054322137035
Cl     -2.098743441330043     -0.499263277281131     -0.518614042976836
H       0.182962059037479      0.397775761233689     -0.621337157636901
H      -0.131732312894130     -0.424581982663497      0.871884291535707
H       0.095294709238246     -1.373973459630307     -0.626715546518938
Cl      2.197753884201248      0.697607941363117      0.597091623318420
6

C      -0.705476928615852     -0.263751234498841     -0.244230295912075
Cl     -1.015116139564569      0.276452160216948     -1.847404775159248
H       0.367615750793732     -0.021182119475839      0.010744635704384
H      -1.257345004776454      0.257701699393849      0.456823436217277
H      -0.842702588848240     -1.327329321064298     -0.238580963977341
Cl      1.303403154717685     -0.156072687815254      1.923642605325398
6

C       0.704570524217871      0.441760941043540      0.773455110974936
Cl      0.588591538302964      1.903194360843983     -0.321970743470104
H       1.685414357192442      0.118445590249294      0.754676615038150
H       0.519284253174476      0.729228340061155      1.746655264945559
H      -0.078978543201998     -0.293056752727864      0.423132708541402
Cl     -0.887754370294033     -2.068639911700913     -0.023243068748641
6

C      -0.176068497483357      0.243225150441489     -0.423983466158049
Cl     -1.635184853453850      0.367061029653073     -1.438811288586237
H       0.459765434590935     -0.667622567772483     -0.493821537843331
H       0.543948257106692      1.062423974479842     -0.575983311538636
H      -0.585633528930217      0.328851971170906      0.569378901615408
Cl      1.682951677690866     -0.470046075826701      1.596692664252615
6

C       0.251328174081621      0.482651864231826      0.051448013333513
Cl      1.783818903933394      1.301445069567649      0.526664705802688
H       0.221562384667479     -0.601535697502058      0.321715495889990
H      -0.576375889486911      0.854730183014439      0.641080036686176
H       0.062556328273857      0.530758568238127     -0.991493000796879
Cl     -1.860662555976731     -1.487266119482115     -0.543280080702075
6

C       0.571001623797741     -0.055623958040727     -0.074147761393434
Cl      2.065136977004016      0.730919131940894      0.594497096408077
H       0.531708144545405      0.076322122174574     -1.167020887023071
H       0.574367744243602     -1.177115848082352      0.143449496849385
H      -0.358394064104758      0.317659316227974      0.416831138747085
Cl     -2.279860920098997     -0.689804919106365     -0.552122401470569
6

C       0.010631855358582      0.057067402871539     -0.744155599342079
Cl     -0.287141631986657      1.772031288046676     -1.073405519717753
H      -0.721984369190608     -0.334597384731069     -0.018644478728106
H      -0.001979559341876     -0.437795671390603     -1.673526971657907
H       0.925501438637255     -0.056067094855706     -0.177827060431682
Cl      0.277808796305521     -1.767809813962231      1.378709085376485
6

C       0.312605081693007      0.624701170949621      0.069423923956933
Cl      2.046561322478638      0.635727560647652     -0.287411176220530
H       0.135322575286224      0.241706812656915      1.054869129319712
H      -0.102852499648947      1.604700800552337     -0.093783449976030
H      -0.234408503182649     -0.089159690497738     -0.647062077502355
Cl     -2.146734684996261     -0.897352149374527      0.254960215958064
6

C      -0.462132792865688     -0.993946225083363     -0.154351949955966
Cl     -1.889656109532751      0.056204092585588     -0.503820999254586
H      -0.020932765893264     -1.377663338006769     -1.118302361988185
H       0.233641821399431     -0.316938133939047      0.281467371903190
H      -0.790283145843702     -1.796955438313816      0.521440535706688
Cl      2.062656720482536      0.379840406004504      0.565085847799992
6

C       0.910843682339205      0.492860929780520     -0.758983171128222
Cl      1.366868012107815      0.619475385866536      1.058089050376395
H       1.712116345873909     -0.196180342724006     -1.130629239008030
H      -0.073733248352866      0.098870853857647     -0.803094604686592
H       0.961859452046866      1.436719169123805     -1.280544703028923
Cl     -1.749412101206275     -0.824549506749278     -0.709538145904816
6

C      -0.255805537175135     -0.507902964901930      0.110091712783529
Cl     -1.651810628121325     -1.313283763788959     -0.684836541267330
H       0.376529539488274      0.122398455247051     -0.581480112779417
H      -0.647477412580386      0.123953154746204      0.935534743060714
H       0.400245692939095     -1.277446329533433      0.547458588798392
Cl      1.734804932905661      1.514687599860423      0.621901791279328
6

C      -0.498753772159105     -1.234161752721207     -0.076767316845675
Cl     -1.265477433956349      0.079626689200126     -1.116288134650006
H      -0.415574901545824     -0.930976636069317      0.971177382968733
H      -1.009176790034985     -2.180749386985369     -0.223244791101692
H       0.536438046257857     -1.295853318138498     -0.342580381917571
Cl      1.459721487888316      0.463853050936933      1.130772118148016
6

C      -0.493622508437198     -1.290102739463521     -0.571095152694909
Cl     -0.682662689996647      0.338680234208766     -1.415354347553304
H      -0.549308740614208     -1.049093698678703      0.554520224556327
H      -1.268467746775741     -1.878732649325556     -1.042231285237051
H       0.536335449865192     -1.532213072349691     -0.748837578379892
Cl      0.886346540903972      0.225244836014426      1.644010621381000
6

C      -0.452759278380199     -0.294735629470964     -0.692063956354090
Cl     -0.651160211535128     -2.025471082481104     -0.181693871147019
H      -0.789749590900527      0.240814970807577      0.156794475235927
H       0.553499742452857     -0.084761238054966     -0.883071891360970
H      -1.145040422952164     -0.223073560916433     -1.548567818199729
Cl      0.843838132161252      2.127237672956866      0.480859574277304
6

C       0.275712668665591     -0.101728459417572      0.746051636872153
Cl      1.959723943135344      0.637634595022860      0.691769179799465
H      -0.092049746572755     -0.303845894516556     -0.263296327302925
H       0.380353181037080     -1.012870858839833      1.257410428714650
H      -0.321121840801027      0.671545279606022      1.234502607689578
Cl     -2.052206422959188     -0.584822370153915     -1.007912250412915
6

C       0.259496234372165      0.326090975926846      0.170096643852062
Cl      1.794680794714296      1.350596312554842      0.489162499217571
H       0.572128112520886     -0.693719580984336      0.324646422485785
H      -0.532575152048537      0.599358702380727      0.860199448573212
H      -0.102775032029740      0.415251266179183     -0.859089263498021
Cl     -1.880804389154775     -1.470205232795564     -0.556056531649972
6

C       0.628187935593289     -0.465066554736453      0.205833694955842
Cl      1.922223223750251      0.785964631751966      0.342564939281033
H       0.646888305520974     -1.194777684131552      0.981731203903891
H      -0.283780936105160      0.041118563912150      0.224930065599779
H       0.655478828082835     -0.967126392117606     -0.733009121154311
Cl     -2.164025767656923     -0.568089704096877     -0.425772552134362
6

C       0.619576478518042     -0.441841873184231      0.223834880999931
Cl      1.948233787198916      0.778537596421600      0.339114295300917
H       0.696885000680680     -1.156461149908722      1.023165884466266
H      -0.318985409160305      0.030973077558983      0.221317910287283
H       0.784395433141952     -0.941180684109796     -0.713686306871452
Cl     -2.191204914655643     -0.570070322928601     -0.430045878473720
6

C      -0.300892867853008     -0.455763665599093     -0.329218948810407
Cl     -0.770929408871908     -0.361705708904438     -2.027368490447259
H       0.439845575896172     -1.225650826065475     -0.265973416062650
H       0.105542641341117      0.512642682563452     -0.013428490098519
H      -1.168970786320969     -0.709205863990960      0.327448356852742
Cl      0.890607701267356      0.556565204167185      2.137546712502655
6

C       0.298629133290916     -0.007776057359067     -0.967044845940592
Cl     -0.580295775326590      1.492969166927182     -1.225635221112995
H       1.227516531424982      0.352018874438514     -0.636128266664571
H      -0.093702537019652     -0.521521174443180     -0.129265510825604
H       0.400117174108033     -0.657552507509592     -1.851287923800982
Cl      0.435499241114471     -1.466817700892946      1.627688558193228
6

C      -0.673863453059752     -0.182665471120856     -0.232473229662560
Cl     -1.020803254755634      0.328883466341054     -1.940849913798303
H       0.232360555243915      0.276245034269309      0.210387606921159
H      -1.511699063675195      0.061908303611673      0.450375239049990
H      -0.580063592119657     -1.229903112215609     -0.235073679951341
Cl      1.301989467789639     -0.241637239368885      2.007511162941569
6

C      -0.299062160212188     -0.008859093472452      0.909261264288901
Cl      0.610398827113642     -1.546016502683202      1.310421419996899
H       0.181648835658464      0.834939602719174      1.384780786046917
H      -0.324523193545019      0.178971578072122     -0.185145542003170
H      -1.315400300881947     -0.123037542772920      1.252633058325927
Cl     -0.467606825354892      1.523686628059053     -1.688221800650325
6

C       0.806216916178045     -0.227009641445903     -0.504375113494120
Cl      1.854011024636947      0.443119207480279      0.828384346851522
H       1.309821382237104     -1.137876379118310     -0.839501440581756
H      -0.246766574085356     -0.262690156412162     -0.160936097942141
H       0.932321896772649      0.363275835570050     -1.443942660754587
Cl     -2.183906965364088     -0.336710129089127     -0.587989855199893
6

C      -1.014747779142340     -0.462088138124145     -0.129232749912731
Cl     -0.760198111828117      0.347216157451015     -1.718464892519876
H      -0.204035482071319     -0.206262273296034      0.585952343333176
H      -1.945935956477811     -0.149287912015026      0.335007641423942
H      -1.005770507919991     -1.520816277680595     -0.233535420439523
Cl      1.193741791865378     -0.137300275315468      1.742704401641703
6

C      -0.658461616445408     -0.327867241523563     -0.942181663918561
Cl     -1.704681029602938     -0.762720931445770      0.477014781106618
H      -1.239871124338322     -0.110035796143293     -1.823553415645080
H      -0.080502303640316      0.568290625721104     -0.606815570252621
H       0.108376571299488     -1.027389182782642     -1.163032108152947
Cl      1.962240276617308      0.889990349385670     -0.055613024600873
6

C      -0.421936048338168      0.017020033912772     -0.245905224534013
Cl     -1.670276332406900      0.571631047625928     -1.410418016349439
H      -0.817927656888671     -0.090472836851745      0.713543358634553
H       0.104369067923983     -0.878414510650941     -0.442904400704080
H       0.389114721908186      0.746526258339571     -0.146475600053265
Cl      1.822460064271041     -0.571074986961605      1.490203939822990
6

C      -1.261106352368031     -0.144325329803607      0.402583294958475
Cl     -1.055220962657074      0.596892369578555     -1.246574994479047
H      -0.935242477621586      0.588270138054853      1.113061952966888
H      -2.294500256217120     -0.436849920738538      0.430489407727976
H      -0.532504384165165     -0.966636742642436      0.550801922291029
Cl      1.589480299560904     -0.524812544647702      1.050621931996773
6

C      -0.062989075476523     -0.513741563962768      0.110526983156177
Cl      0.853794376499437     -1.644716801752054      1.112557417328432
H      -1.102407269925550     -0.752598611020261      0.254592554767939
H       0.107679759178183      0.455375528271404      0.408608664221816
H       0.247617677368183     -0.408665797354018     -0.930745869845296
Cl     -0.811209087427670      1.838851806431904     -1.142398167303796
6

C       0.331741182739080      1.279570923959582     -0.074674706678891
Cl      1.753688282802671      0.165131191309044     -0.152195591840126
H      -0.461931048714845      0.669065399502287      0.409016156662844
H       0.602127308220901      2.167699620237329      0.542370124661900
H      -0.031683636531881      1.518776225148869     -1.044833317770582
Cl     -1.869172741754355     -0.722516577558025      0.180153631745853
6

C      -0.699511671665078      0.239813097958645     -0.412260014508632
Cl     -0.538759276007553      2.143309326950344     -0.226490251041483
H      -0.106475049798149      0.036314109682380     -1.335765386751973
H      -0.062820328741267     -0.242736103984583      0.333531081660666
H      -1.733629807214584     -0.070035933980236     -0.355605858337498
Cl      0.829873049649606     -2.216700738173813      0.404779614059805
6

C      -0.282946246450592      1.195433949279646     -0.444948262728332
Cl     -1.435882039042582     -0.022978273540090     -0.987551845315323
H       0.385521925428407      0.737991117321798      0.261414557708420
H       0.383787083186391      1.503870475464211     -1.208284634143808
H      -0.731352888208292      2.082614532688069     -0.058230755858560
Cl      1.530669277314729     -0.505016905565043      1.166886548350050
6

C       0.635766779855814     -0.414971516784050      1.127824952981456
Cl      0.301483348869226      1.432242673871485      0.970252493556586
H       0.458012043702510     -0.773109104520373      2.186136807163066
H      -0.012323667092133     -0.897289276448490      0.463045828435725
H       1.682364105322378     -0.476180860177180      0.808846729675338
Cl     -0.577400745050824     -1.230607278577594     -1.450703808379060
6

C       0.445217517956863     -0.201818028514808      0.100925654106916
Cl      1.864759459256291     -0.025502704205621      1.203889156624598
H      -0.299886525338152     -0.608857616233450      0.729185127044488
H       0.117895856459313      0.813553385427625     -0.271423303184235
H       0.652960158826190     -0.770283170284145     -0.723389365115580
Cl     -2.028997677988229      0.109963873198325     -1.230531341953025
6

C      -0.267057991162474      0.762073862048751     -0.338539128616063
Cl     -1.765109343635999      0.157065580165735     -1.254499813925435
H       0.193200993085085      0.023410380761234      0.340028628009307
H       0.465762061428890      0.983350049718837     -1.150898589134030
H      -0.625970318932019      1.576359605994242      0.259964636386357
Cl      1.854654529937477     -0.488717319343024      1.384866698019778
6

C      -0.158903006380172     -0.029202214080868      0.408305447514181
Cl     -0.387471974482395      0.003574520683458      2.214461893836031
H      -1.018935312846565     -0.493385907872565      0.043882118347810
H       0.028577119297807      0.982258593209394      0.075950843113588
H       0.771547978394494     -0.512933202895127      0.064780553344477
Cl      0.447532473960763      0.007003781009729     -2.358051376290661
6

C      -0.108516049929818     -0.446204290249597      0.377689953539857
Cl      1.074869049374797     -1.829067830652363      0.632189022864850
H      -1.129858356816172     -0.880947457001710      0.358900367759119
H       0.071821747838754      0.258277625587482      1.175024148591035
H       0.194340796232979      0.021004608439085     -0.511645973876071
Cl     -1.013543473776707      1.997356639536562     -0.789224024353800
6

C      -0.633974784592255      0.343752064909438      0.004015422099030
Cl     -1.539801724899618      0.242826223065222     -1.638209939073874
H      -0.626755130698669     -0.560519154687796      0.593678789019407
H       0.411399137443439      0.657838327669239     -0.240846017536413
H      -1.140859869905753      1.175603197919472      0.522724646290939
Cl      1.793165243314348     -0.395489461471328      1.611953490217772
6

C       0.579259673310759      0.017600464323223      0.794794049012467
Cl      1.590485665127645      1.294596539258592      0.110345220155367
H       0.392896005564893      0.342211925711226      1.792792017204633
H      -0.313475693491853     -0.141383134908466      0.138186301243678
H       1.145473834738482     -0.930545527797619      0.795190839246089
Cl     -1.821576814242505     -1.279810776383997     -0.457150575124231
6

C       0.250303870872500      0.626976133786712     -0.766908099623620
Cl     -1.268520045370266     -0.024346566921096     -1.563411864089105
H       1.037464748970734      0.836924221878348     -1.536938660798683
H      -0.138539423670991      1.443652309004989     -0.142802287196730
H       0.578233029897532     -0.087412691759312     -0.013415750641641
Cl      1.141711147906506     -0.250443827796772      1.871395930007466
6

C      -0.422206419784928      1.201472453577935     -0.085413473966895
Cl     -1.322130529998176      0.045834179333937     -1.206262322591783
H      -0.083246731900545      2.050033794428160     -0.624826397135010
H      -1.092728497979579      1.452027212604804      0.732325830588351
H       0.467451277732010      0.564116623284505      0.263015453150530
Cl      1.485326960232356     -0.568530729158638      1.224666334724887
6

C       0.460708068872322     -0.332005714293928      0.117179998745101
Cl      1.837847262623399      0.050094326706059      1.211301669131075
H      -0.394058659966007     -0.010291371589346      0.690048074031139
H       0.431566668571961      0.259896609808521     -0.786371377562062
H       0.380278379710205     -1.288611137111758     -0.193423393052100
Cl     -2.005821685603649      0.091937791219706     -1.242765259956798
6

C       0.113159006298929      0.330238029549534     -0.610159001588627
Cl     -1.234613799716286      0.126596403838519     -1.694061729798818
H       1.056391164459882      0.440156079638300     -1.218677687453649
H       0.044217979748367      1.232208737171760     -0.012930402328564
H       0.222802864287004     -0.566236444790718     -0.022668127735955
Cl      1.158643358835633     -0.269938191480676      1.936457503997332
6

C       0.422180608568738     -0.028078344537761     -0.121668365540742
Cl      1.880052139811298      1.077059973382688     -0.251596897291918
H      -0.178576357291789      0.056700777487919     -1.035252012408847
H       0.855267405074642     -1.080018242949123     -0.089911029519641
H      -0.152851108604253      0.102616833031433      0.784353660703346
Cl     -2.037988443004878     -1.041367018975592      0.302510708146201
6

C      -0.004119921829073      0.031618210149844     -0.786133602754916
Cl     -0.307143089051820      1.818309492702028     -1.003007495834524
H      -0.735037767206691     -0.397626545126457     -0.083249330223097
H      -0.098102689422532     -0.529191685847721     -1.735514989137528
H       1.029715600178278     -0.144483642819452     -0.466901421611951
Cl      0.302949482179940     -1.798560382217573      1.334353102875113
6

C      -0.073972196150763     -0.425820239589385     -0.103351910527749
Cl     -1.675674803569791     -1.243060474757456     -0.746415757787233
H      -0.309028804376226      0.542426605476010      0.271414392086541
H       0.207903559657424     -1.160423141457599      0.694132110154072
H       0.679288723078557     -0.361597740592543     -0.849845229015912
Cl      1.684297970333702      1.415189048198741      0.778143061424402
6

C      -0.166170962696754     -0.028624094194768     -0.455592737964366
Cl     -1.479443334798233      0.633434568230868     -1.424557720506115
H      -0.122652908606142     -1.088271611381074     -0.630874845374080
H       0.739697173265995      0.527691339749708     -0.627689288108172
H      -0.342377112105837      0.072454584011581      0.573304405156591
Cl      1.527934588484399     -0.609856720882661      1.598404439316909
6

C      -0.948056086161245     -0.453172636741996     -0.088098530697209
Cl     -0.705355005571903      0.349146813307513     -1.658626369305296
H      -0.037729637064757     -0.303934268670659      0.490270782852932
H      -1.821255978239023      0.024929420709697      0.320514028410656
H      -1.285197649600008     -1.500159108150825     -0.231918793668612
Cl      1.115973859786436     -0.145015535235046      1.672015777104093
6

C      -0.005285536813986     -0.209244204294095      0.354678526039578
Cl      0.971958503429832     -1.550528556105633      1.339250439151897
H      -1.026986378015849     -0.475613238837880      0.556181959600067
H       0.162206655866285      0.769618898190060      0.736037832879376
H       0.237647381839764     -0.327459042585417     -0.698458457793564
Cl     -0.952335542027754      1.622374907250205     -1.476304182498168
6

C       0.573420407851202     -0.256900455959041      0.465163780307776
Cl      1.943154496328972      0.752698712930567     -0.196806769725995
H       0.236324720776508      0.092204193841894      1.412959409859866
H      -0.208301440632638     -0.123399149437390     -0.314754103250479
H       0.920259225526806     -1.227471890283070      0.588166592879546
Cl     -2.164401923251887     -0.629867470133163     -0.008748802628361
6

C      -0.164720253828065     -0.581108455140495     -0.119036560244538
Cl     -1.434375363296354     -1.322777941414586      0.977007127144603
H      -0.619535875752888      0.160003471855177     -0.724570749590683
H       0.573950361776170     -0.054827704438054      0.475381717231045
H       0.273976110765844     -1.300148746823766     -0.789166834967006
Cl      1.483690941495681      1.553644695093936     -0.907150685977840
6

C      -0.245879569986201     -0.284370529921077      0.366428517689471
Cl     -0.235718316107295     -0.089862440150966      2.140363375012726
H       0.684451187250943     -0.520028562134229     -0.054876357412027
H      -0.933768308786057     -1.057567051116081      0.002747227926676
H      -0.559457732749266      0.665877257183666     -0.000550261268643
Cl      0.342023099413993      0.212135685222776     -2.263017030868539
6

C      -0.252829685117234     -0.483224382838273     -0.207139699686948
Cl     -1.349679515413186     -1.451320619944411      0.955225565871544
H       0.737243142850517     -0.388155741497926      0.154751596041081
H      -0.225639206501015     -1.122362413451384     -1.086831272223392
H      -0.613476394386680      0.491938913409186     -0.335798085935281
Cl      1.438238747730338      1.644007106199496     -0.848992118279043
6

C      -0.395412286536910      0.677487020896777     -0.331627191925193
Cl     -0.915459802644534     -0.244552087537798     -1.741909956420344
H      -0.925583331256561      0.276082782772832      0.475320492193291
H       0.673252613196368      0.604429290859102     -0.160401985667960
H      -0.715140108975859      1.734981412752077     -0.454997509756680
Cl      1.076940975204366     -0.059360861468292      1.858253365093745
6

C      -0.562845788777395      0.256763640239356      0.027234861826088
Cl     -1.387479516553270      0.473322672757888     -1.635546415283443
H      -1.180685439941911     -0.434860028172693      0.583267637997665
H       0.422917576178477     -0.210170695794091      0.074535918802525
H      -0.555311462854377      1.190280006378245      0.509519485999135
Cl      1.615516885530283     -0.575821949474005      1.593126681784554
6

C       0.137877722889471     -0.253857150254532     -0.262672005376785
Cl      0.600536305373524     -1.827611521070395     -1.049074654341666
H      -0.287592889472805      0.374832126225257     -1.098057983563649
H      -0.670992933227765     -0.376863693140962      0.402152036112710
H       1.049595418664566      0.189595074437790      0.196787440702167
Cl     -0.649839182731995      1.908288931962488      1.152264073562606
6

C       0.064742067001816     -0.079196022113678      0.408629589078259
Cl      0.805748618278272     -0.136570870914653      2.040323371056360
H      -0.995494841654804     -0.382758771180690      0.407175236465491
H       0.038352206610028      0.914324284130132      0.033450944345319
H       0.498532808927990     -0.740582353767408     -0.344222457921290
Cl     -0.814643914809551      0.169346961102292     -2.181514483809309
6

C      -0.187534791343481     -0.346789905472846     -0.295778192533390
Cl     -1.821724809538310     -0.117551309781035     -1.323777440024372
H       0.579856253936384      0.298050621750463     -0.691234494227714
H      -0.396772946194247     -0.104873753646388      0.720748944174787
H       0.085120362358211     -1.383848658174600     -0.350444639902477
Cl      1.877638239139557      0.268905067722528      1.433117059262528
6

C       0.380821074296804      0.023881752049917     -0.322092881042067
Cl      1.897892404893284      1.080225561944800     -0.207864678011148
H       0.666142895536709     -0.911973398069435      0.183919972401412
H      -0.472448249390965      0.508204370434953     -0.062853722398586
H       0.256755312421603     -0.258751243349067     -1.361832493954054
Cl     -2.039728666716002     -1.069478687211912      0.352275114346796
6

C      -0.509888240084521      0.062161476156177     -0.370199731699202
Cl     -1.528169014153349     -1.453524001029038     -0.548116697818301
H      -0.540587880398661      0.785341532883166     -1.228025594405452
H      -0.982688656811547      0.510741623425645      0.429172657604909
H       0.512889300489846     -0.202664218966063     -0.151130276452790
Cl      1.729656686544544      1.401372018547988      0.700558222681437
6

C      -0.201778602989307     -0.382284680657961     -0.206691481161712
Cl     -0.711076265937521     -0.330452103206028     -1.938848925164294
H      -0.664825544165012      0.428567902392800      0.362825068840351
H      -0.613090907712774     -1.374857359991793      0.070696141664172
H       0.887345710676868     -0.288006518735074     -0.207445417080450
Cl      0.790547580680425      0.495072459864048      2.002450814599001
6

C      -0.666716777788707     -0.235212674944975     -0.129604377468553
Cl     -1.037711534047133      0.300798102264068     -1.898572396221937
H      -0.694317044008741      0.640097153916102      0.500257993281053
H      -1.511690693175055     -0.849672874336534      0.236785343387382
H       0.335542631883456     -0.728769403867190     -0.188063940735759
Cl      1.316790914700519     -0.194423170697178      1.926874425747286
6

C       0.010428564682783     -0.360040949789450      0.280086751265500
Cl      1.028801721840210     -1.849538729030442      0.604973268035678
H      -0.843737001789606     -0.670293480061474     -0.306898059484041
H      -0.252560930216077      0.101796989313570      1.261997864993944
H       0.562529957099017      0.320970673285245     -0.362081791929796
Cl     -1.017157698474875      1.978564338957796     -0.716733045952139
6

C      -0.177382563006290      0.289002247329293     -0.318737994057031
Cl     -1.703017452457416      0.626416958665075     -1.291487750495165
H       0.635910350373038      0.130052734224151     -1.050877938545710
H       0.004723976833802      1.178394235105642      0.333662015078701
H      -0.417465485695828     -0.553278603226573      0.301181377153867
Cl      1.756771691442580     -0.745808092817569      1.411310736935278
6

C      -0.383653298886401      0.183038069682368      0.297824509804059
Cl     -1.014337474602641      1.850470823552413      0.521633078726680
H      -1.153093859346214     -0.569714327654140      0.338683266516171
H      -0.092595567355815      0.141572542738416     -0.684870782938930
H       0.355696177643622     -0.068379009675596      0.989453058718297
Cl      1.169631493445422     -1.898368631563883     -0.640831438497926
6

C       0.178036500640161     -1.061650590927528      0.180141653200351
Cl     -1.208780503059245     -0.657685582050050      1.303716947746196
H       0.830450496861260     -1.770560172169482      0.701658577189676
H      -0.279095489869874     -1.401771319931058     -0.775785190989623
H       0.715746612147484     -0.197820721997473     -0.011419373414185
Cl      1.112429731796027      1.113217279636501     -1.362319233824522
6

C      -1.230597326418206     -0.162771723897023      0.432182930164842
Cl     -0.954136812135985      0.580261759352211     -1.221799932286004
H      -0.704025133919345      0.459050159894971      1.132504640582468
H      -2.278911300815807     -0.232520493552727      0.660678573173499
H      -0.765243646659741     -1.159821208189570      0.423937158055523
Cl      1.477659238360403     -0.498574621131937      1.012327252201501
6

C      -0.233494800139781      0.115018283687547     -0.315848413341456
Cl     -1.706062085940999      0.656902484301227     -1.229313662852007
H       0.482899469510528     -0.190704498040020     -1.079932355992767
H       0.101198790640865      0.974851349222931      0.237962793268238
H      -0.354742022086626     -0.687860175243443      0.356331385106500
Cl      1.778652070609809     -0.698610286126822      1.350136753844438
6

C      -0.069960537063238      0.170412144695590     -0.369077234840788
Cl     -1.155234748911596      0.247485429673546     -1.793700983610407
H       0.252293392141226      1.198166258368119     -0.122722226430554
H      -0.603485353966917     -0.272499190567999      0.422779096266709
H       0.723862927411645     -0.437200755659646     -0.717197220114869
Cl      1.168341763787666     -0.319112913808254      1.930611114520232
6

C       0.049550633719136     -0.296280108272754     -0.292065809675066
Cl     -0.311777959456904     -1.007289734883216     -1.993717663344924
H       0.358094149343302     -1.129549386296219      0.261729483252381
H       0.885365030069252      0.412547263099356     -0.340150357350510
H      -0.865800130842032      0.182179782761835      0.027392259219567
Cl      0.284250935971457      1.122881308920498      2.094124977415547
6

C      -0.093428336973076     -0.540768312869830      0.150516395608250
Cl      0.229193579387896     -0.950074537852046      1.945574556204804
H       0.170905910151959     -1.385267260714201     -0.488229314110043
H      -1.176940711795382     -0.479427952897012      0.026352011569116
H       0.360385743613790      0.418559184729801     -0.056183030757552
Cl     -0.179179982607153      1.174415111138117     -1.981841061470945
6

C      -0.308506958251598      0.124915921788755     -0.261311704437190
Cl     -1.708236683775553      0.455124858114488     -1.324195925866533
H       0.302552632565039      0.990718890730193     -0.032426537248625
H      -0.702490568633920     -0.232752847694556      0.690718810970168
H       0.357900498373567     -0.619017273067598     -0.646490710777186
Cl      1.813958850567019     -0.501399202169011      1.412396741283914
6

C      -0.257675095057976     -0.411675327640964      0.246792255101155
Cl     -1.575894111034685     -1.361594215685912     -0.518727599824174
H      -0.296284427934495      0.642187634136491      0.132374426267688
H      -0.298112730771066     -0.523965686988802      1.343151089788762
H       0.701437861168046     -0.825932060793761     -0.083351542475754
Cl      1.660154718613185      1.521199410463069      0.395524972422464
6

C       0.043972320479853     -0.155454724678847     -0.308662278416961
Cl      0.446068459139667     -1.331611073938390     -1.662108574302280
H      -1.020732643315327      0.051851758517060     -0.313440044916106
H       0.247779518319817     -0.688497417975057      0.632727670903719
H       0.630308245224967      0.804742994522471     -0.291088771309617
Cl     -0.456910927474624      1.379501753328313      1.765886238069569
6

C       0.586323223024664      0.121649567443995     -0.146894836073500
Cl      0.710502682834189      0.291127685730885     -1.952565331128824
H       0.474625614617537     -0.939996920988733      0.200088306235045
H       1.505428994075345      0.554088440754825      0.247711671171501
H      -0.314647942590398      0.645976855878232      0.124693390486186
Cl     -0.956512785829432     -0.339739304270225      1.986057025381072
6

C      -0.350961424557681     -0.555550196431454     -0.057335151143093
Cl     -1.821598157667225     -0.577830520412391      1.175334500105961
H      -0.287798382012056      0.370037032432307     -0.520359990844312
H       0.625809243268534     -0.694637357615946      0.462887695294285
H      -0.565500914770453     -1.232715437898349     -0.898214493986103
Cl      1.946977780919809      0.810340751682475     -1.128734083061332
6

C      -0.052506179328375     -0.279857125168476     -0.191400378488822
Cl     -0.302455105553960     -1.670579590434713     -1.397866676679541
H      -0.013128198259551      0.683974221933795     -0.807260418967090
H      -0.880542695309870     -0.324129343294032      0.454835516542389
H       0.849723319560226     -0.529414249672058      0.316453510562425
Cl      0.321494622465551      1.770221053238615      1.463738865932754
6

C      -0.160214127178719     -0.089371217460140     -0.334466647134334
Cl     -1.373104922888899      0.378505229706207     -1.662328360164295
H      -0.570077022394472     -0.099323121828220      0.653800031592951
H       0.257530979566283     -1.031607532191430     -0.705186417938435
H       0.637717627979129      0.701838493311072     -0.465481340232756
Cl      1.418141845983712     -0.336023915435220      1.790347586317182
6

C      -0.490949699300927     -0.207449769492754     -0.118532686263237
Cl     -1.528580267972131      0.659213940895654     -1.389891386445939
H      -1.096643561915002     -1.050608747669727      0.179714678794440
H       0.457487344498261     -0.446519519903006     -0.547725357855882
H      -0.334127480596578      0.519137568033130      0.612406343781558
Cl      1.722596256855041     -0.561118205874095      1.423102818453501
6

C      -0.402462103605274      0.081661773026269     -0.121064831802272
Cl     -1.775057654134713      0.472098495977818     -1.300143445438422
H      -0.901304895797651     -0.169138634010025      0.791843200828708
H       0.404883118907890     -0.654472808734411     -0.378639350300887
H       0.105608478730787      1.045300163326601      0.153864441889624
Cl      1.922530492807425     -0.506070337618624      1.325037799627992
6

C      -0.350779810608842      0.646923869702817     -0.272922200304805
Cl     -0.971364020223845     -0.264893628906563     -1.850703929634079
H      -0.798540474423646      0.086885158575342      0.538291823087548
H       0.687847805133686      0.662685478435165     -0.248913266067831
H      -0.757340848692522      1.652245156699848     -0.454439940819114
Cl      1.114895588386034     -0.022588258796162      1.947867552278083
6

C      -0.191223269308807      0.476930189661644      0.237126180793808
Cl      1.077980191765931      1.496718526115529      1.039660455704663
H       0.095072397283715      0.431359159908595     -0.762102399525432
H      -0.198632933545511     -0.507890172026876      0.714424197596685
H      -1.185059602899329      0.866862947606947      0.277983617177952
Cl     -0.976549675886048     -1.680782365297446     -1.126551017512497
6

C      -0.899949622464234     -0.508143699648571      0.176452215935356
Cl     -1.410320716598065      0.735456950537113     -1.170881512387652
H      -1.383723944393736     -1.423602982602816     -0.084128300005929
H       0.169726066979692     -0.518323925221452      0.280345034546684
H      -1.310954969433865     -0.094606346043477      1.063764438149533
Cl      1.787032913637262     -0.505382493657592      1.075269986642340
6

C      -0.059360448464162      0.384750948666735     -0.448001050958879
Cl     -1.070639854782286     -0.021123004349931     -1.779032747242013
H      -0.044983416614386      1.504667057431021     -0.415103976849807
H      -0.569938868288347      0.001344569003848      0.381967531859118
H       1.004296329983788     -0.001983826658801     -0.488172267055248
Cl      1.079680455884144     -0.152002627994477      1.945645435671068
6

C      -0.498602163639234     -1.277448728715342     -0.065804957509471
Cl     -1.170322074908540      0.100006966312733     -1.019322188660126
H      -0.850297421191840     -1.025337337925777      0.941736339605342
H      -1.019466634094044     -2.140237157923963     -0.511220886123994
H       0.545345389534873     -1.308910995439845     -0.141740811580632
Cl      1.376915152554432      0.460041497885300      1.033406772739411
6

C      -0.607238071925778     -0.204612303761706     -0.935774101099099
Cl     -0.515130771613883     -1.737525786038347      0.093327112141850
H       0.366480561725680      0.189908113095342     -0.935593815902990
H      -0.997480954794995     -0.539650573222247     -1.887969003286813
H      -1.201835791641614      0.524393377587614     -0.479714763968147
Cl      0.772987904366758      1.801885454745886      0.317654172262195
6

C      -0.327783670354847      0.849355612708237     -0.095926050571563
Cl     -1.592455849561375      0.206228328906420     -1.404138216981778
H       0.286852156192268      1.590967559804326     -0.600740194482242
H      -0.830583505190049      1.265005735118208      0.757893542652170
H       0.206327225782502     -0.008440665789095      0.269566333216972
Cl      1.713107838865540     -0.574970872049064      1.424505899762508
6

C      -0.017840364633329     -0.485500461796377     -0.671016602493282
Cl     -1.228953698570237      0.517063090730090     -1.582496542997120
H       0.205754350692402     -1.384419988840619     -1.190557860686098
H       0.916375583802036      0.143600786648591     -0.646958514707549
H      -0.330190272714177     -0.676967408672056      0.368178992631627
Cl      1.212479945129772     -0.298036999040733      1.851626937760741
6

C      -0.278759884468130     -0.178192066073322     -0.229548014790993
Cl     -1.199142588611991      0.252948632270346     -1.881257125485405
H       0.181190759892417      0.706508336808554      0.209941482818337
H      -0.963188963216098     -0.773080134881027      0.408228615630634
H       0.517751297464514     -0.839945916646030     -0.583243194396360
Cl      1.301104389837732     -0.166798145329750      1.958038363464766
6

C      -0.197243230751269     -0.318288768908346     -0.262425306505975
Cl     -1.655764613123068     -1.316298169129198     -0.694056637478866
H      -0.224894353048924      0.591310306450154     -0.905739678953310
H      -0.093125080146081     -0.130102921687538      0.758638145018423
H       0.654023225029036     -0.931343405111534     -0.584834345261882
Cl      1.713039553105716      1.437507294992926      0.803782497074735
6

C       0.079470184835131      0.508563981641927     -0.314918185248857
Cl      1.775876854890839      1.213614297213908      0.180172543882151
H      -0.571824106031400      0.695041041020204      0.502185294747264
H      -0.293843930992878      1.072203494702791     -1.131956964375547
H       0.153426366635074     -0.512186234923078     -0.616991446710813
Cl     -1.782550389060148     -1.421610369166189     -0.038022486215212
6

C       0.417906376499204     -0.163175088236699      0.258360211794937
Cl      1.799549829224262      0.874345498783427      0.943643585882285
H       0.359196795423173     -0.198824012057855     -0.758826078200173
H       0.646615246460101     -1.135768965955492      0.636506457042771
H      -0.550662658239247      0.053351121567232      0.544133935542305
Cl     -1.954084781744598     -0.782627931051167     -1.043174004296120
6

C       0.122798682775695     -0.341415166934809     -0.036552793709021
Cl      0.948555904261710     -1.833301876894154      0.779135823587879
H       0.207064836366413      0.564825788276934      0.605723776680350
H       0.720590948747073     -0.178016657016670     -0.932156438544865
H      -0.924364189896806     -0.616450154875295     -0.168425516973940
Cl     -0.990255563127633      1.955508244224418     -0.752680177621514
6

C      -0.411947726852247     -1.213093896354877     -0.020984730800649
Cl     -1.150608079211295      0.176779677145845     -1.042507244627615
H      -0.235957581867339     -0.964026955142259      0.985370692891223
H      -1.319231678616163     -1.845002815901836     -0.014433175278867
H       0.441318684291616     -1.711464718570383     -0.456182687996957
Cl      1.321854502004612      0.362772628486013      1.034980438799536
6

C       0.025252270064570     -0.419480904076323     -0.290763714426234
Cl     -1.683189656164956     -1.197351083252400     -0.632524377660403
H       0.097179767791133      0.511685209236433     -0.815383662356382
H       0.157654929977298     -0.322349683912336      0.810778769837256
H       0.731354664896486     -1.104363219636937     -0.699457722086137
Cl      1.646592085126557      1.365495880282779      0.751059161567170
6

C       0.136312946120739      0.137561154727152     -0.206105772542813
Cl     -0.190013493403242      1.211880602671002     -1.722564807783485
H      -0.450482601384024     -0.729154891375416     -0.542377430950211
H       1.205288238484229     -0.030653526449726     -0.139951744879824
H      -0.348629686961743      0.639612478927077      0.643261485082874
Cl      0.132279215445621     -1.255070716155302      1.793507449991807
6

C      -0.130377657050801     -0.016819916384335      0.380857665771927
Cl     -1.340427149111378     -1.513721073299266      0.736532313837699
H       0.334723974997829      0.287037236369969      1.298971698130018
H       0.607887807395954     -0.463894914110142     -0.302647262321713
H      -0.866713060858018      0.746429425755878      0.038438526237172
Cl      1.382442949605817      1.503224477916802     -0.894995571646675
6

C       0.090139465959169     -0.090567428389264      0.281644256100051
Cl     -0.321876152576181      0.126417137664845      2.059487913442368
H       0.862899934473916     -0.799307864568874      0.284055936869734
H      -0.828420077510472     -0.421680146129987     -0.230194686802704
H       0.539173048949792      0.832670653506085     -0.011979002289436
Cl      0.275024043837220     -0.084689936580716     -2.156104174818296
6

C       0.043322410828694      0.444881745781004     -0.012112972221971
Cl     -1.040726560564252      1.492868858841291      1.088403148186842
H       0.824110044234118     -0.086436510684450      0.463187790784275
H      -0.641436814236272     -0.271656910437073     -0.469275894157221
H       0.526345348295337      1.159983564025254     -0.706283168112719
Cl      1.005887739594328     -1.666402847913886     -1.064043228553118
6

C      -0.798977196530259     -0.190690272793731      0.334686773811853
Cl     -1.270291063819542      0.634697080433085     -1.381072356744653
H      -1.687608497666105     -0.774409080667013      0.661506345509807
H      -0.051158799489386     -0.857312258254979     -0.031937896455659
H      -0.444337438120883      0.586138614354155      0.912729106811824
Cl      1.603072013909340     -0.540357778518015      1.223821051340778
6

C      -0.143331100815701      0.182031048767513     -0.242551174328341
Cl     -1.698699868984249      0.631929002896413     -1.286899893146384
H       0.633286385026707      0.921584671723636     -0.209564288787092
H      -0.442106170501205     -0.021893818599139      0.788627291730890
H       0.239283090553087     -0.729309735065343     -0.650386899625445
Cl      1.735022657147184     -0.698448582409839      1.371107978977520
6

C      -0.238306145300072      0.109663020934093     -0.102299710819125
Cl     -1.472090042119547      0.272501957705259     -1.463775501004861
H      -0.377155219308889     -0.869255990874436      0.415231929915379
H       0.702212927337513      0.042218958034837     -0.609306008710462
H      -0.326666359802758      0.974462184636650      0.530792183196553
Cl      1.552877535270113     -0.313849407562813      1.488861819126441
6

C       0.099205497714237      0.163884510055283      0.243273587453459
Cl     -0.444198993093011      0.077725564875905      2.097729654446709
H      -0.730543197650320     -0.298320962088198     -0.255446640953878
H       0.149968304010727      1.235650286260366      0.133688693904503
H       0.984465062814337     -0.382908820573604      0.158914437810765
Cl      0.399102278746781     -0.149016755789887     -2.181210974660829
6

C       0.210990215860178     -0.134680140963127      0.075702955401340
Cl      2.095968255569360     -0.475934975424877      0.127395340826709
H      -0.298726182280404     -0.962843894746754     -0.323852360160245
H      -0.158426392701045     -0.097318361796525      1.084563110950555
H       0.177037734174391      0.728739955443345     -0.533716130136938
Cl     -2.159490053119782      0.530990457868199     -0.159499114449929
6

C       0.170045010624790     -0.162877919456989      0.170748696033542
Cl      0.087109866132565     -0.939706414129688      1.949739412582232
H       0.991025244261991      0.508965534242165      0.140246606902366
H       0.184062544547714     -0.981354378246380     -0.508343762081111
H      -0.711376879498530      0.404101819022856      0.067034770995932
Cl     -0.157909054262319      0.996833635900572     -1.999031139092935
6

C      -0.143552616042527      0.170769267023786     -0.241799790959831
Cl     -1.658293533555707      0.642875186764627     -1.266931011378574
H       0.775169431423009      0.114803323652154     -0.849347503721958
H      -0.081465151891848      0.878053662716098      0.607626880404766
H      -0.422002629166812     -0.803393909676089      0.138020821863392
Cl      1.699205669175470     -0.706121687400113      1.351805106980407
6

C       0.142565556706927     -0.155378539652133      0.168673114349687
Cl      0.101945500167417     -0.950010717679291      1.946966277653047
H       1.006677953523891      0.479192484113398      0.177767964786213
H       0.221833748171477     -0.976782488326066     -0.485623760585469
H      -0.808525388144886      0.260078181482712      0.128759816680230
Cl     -0.162190947435860      1.009408843407741     -1.999022808809684
6

C      -0.131647128440974     -0.131381159318636      0.246402355936169
Cl     -1.424190660816791     -1.317485769310338      0.961086634991815
H       0.720410319159853     -0.158779525983263      0.849163923867877
H       0.197093520234333     -0.550242695246212     -0.724268040856757
H      -0.559523165344615      0.836859641708742      0.064633194946936
Cl      1.458615742347490      1.358364725156079     -1.049960654956038
6

C      -0.184801753875874     -0.241568087074640     -0.342451159582282
Cl     -1.612277333438811      0.557079410682434     -1.304886944856349
H       0.596870380966479      0.461845484489515     -0.393581876593373
H      -0.525511822315906     -0.301993282917735      0.657807329511769
H       0.089014125329356     -1.208559976810676     -0.829830944597589
Cl      1.670330879287917     -0.445413071294738      1.436997275275431
6

C      -0.220122040759037      0.103400985551843     -0.119047312902893
Cl     -1.746536666717091      0.503158646232109     -1.209719117426104
H      -0.136978742938595      0.775496308337935      0.689033276370864
H      -0.405311497784680     -0.913150911392620      0.170449006142377
H       0.546176410854457      0.179431502444231     -0.853408760084434
Cl      1.821006866211150     -0.539380376896347      1.249881463397017
6

C      -0.106520802301063     -0.129497087917869     -0.220120214260419
Cl     -0.265396806725505     -1.640430553427507     -1.325447321186502
H      -0.591366519528492      0.690810895922283     -0.682222863781362
H      -0.580957223768436     -0.386784659081982      0.717597651528109
H       0.957124400678509      0.074409600471398     -0.108351162050795
Cl      0.307606744491267      1.673545537883697      1.402102443295945
6

C       0.302682877897340     -0.035368749540893      0.157176577007277
Cl      1.056553201430233     -0.627558094707538      1.799121407674917
H      -0.535560357668174     -0.642355280895103     -0.085984769327339
H       0.137041361316591      1.044681086419516      0.137320158651704
H       1.040900238573684     -0.215556789020539     -0.635010270906250
Cl     -1.177372505762690      0.634230898151785     -1.835778772577584
6

C      -0.143640126865066      0.085061556926661      0.252003561612497
Cl     -0.194691859314020     -0.400007419788025      2.089648751653300
H      -0.780773132580705      0.947194216004007      0.144767100906122
H       0.805587055805532      0.420277019998110     -0.007449140904455
H      -0.468132672758401     -0.800964716649943     -0.272737656602672
Cl      0.255964831480640      0.355078987298512     -2.171180817220403
6

C      -0.235655685084453      0.123850316041811     -0.305035808008412
Cl     -2.014190930375122     -0.440638195589699     -0.674685689167006
H      -0.244967559313508      0.946076367278408      0.415792220886743
H       0.241860548733882     -0.745330038814060      0.204491329513147
H       0.206472804012606      0.354063791035045     -1.261589197563794
Cl      2.088252078859469      0.382900120937094      0.796271618146733
6

C       0.252486215108803      0.061301464025362     -0.025290648713735
Cl      2.177385954135204      0.345126102866772      0.423510025030211
H      -0.144516844910356      1.034375771329138     -0.322648274576395
H       0.313947409069854     -0.537127137798592     -0.884249398179477
H      -0.181245956537722     -0.346306144821625      0.895108667914158
Cl     -2.262596166100096     -0.370187933981811     -0.406075630147825
6

C      -0.247466878744490      0.219781509741964     -0.060295073371663
Cl     -1.524727076971232      0.347897238625052     -1.432199946412425
H      -0.653169679914583      0.895802956729213      0.718951918080180
H      -0.199918112234627     -0.849491664888617      0.172391185700903
H       0.612669984222663      0.655577113909004     -0.481631328288501
Cl      1.615408764728343     -0.442320347976420      1.440978921209904
6

C      -0.144798314421905     -0.066945398137605      0.325523632384460
Cl     -1.372336029510592     -1.538865811740621      0.784554481317343
H       0.588231943548337     -0.065100466706923      1.069173077995160
H       0.356530238205252     -0.290022382243620     -0.604960046801807
H      -0.841686124374277      0.731765948746485      0.301204645772430
Cl      1.418464996751268      1.550838306308620     -0.916611050201723
6

C       0.325519890673334      0.098013663479065      0.065621353247579
Cl      1.556190120805340      1.372328170358230      0.658018299442091
H      -0.230711584029464     -0.313065571896985      0.920117519457534
H      -0.407641377372471      0.644168607275745     -0.492992950897317
H       0.815333142094005     -0.643401548426723     -0.615873100224320
Cl     -1.671513546165443     -1.396656667139482     -0.674884859496771
6

C      -0.299828758633510     -0.119185152318352     -0.263466589958014
Cl     -1.617839152016188     -1.475719525543553     -0.100253681855250
H      -0.653052960530502      0.671855739362925      0.335368672887370
H       0.601968868273403     -0.331684114457204      0.211441923193007
H      -0.277217152114005      0.125964797047530     -1.310797454866488
Cl      1.728760756368061      1.502846954349337      0.211243694990443
6

C      -0.077424339861992      0.053627993462072     -0.309692351797040
Cl     -1.257712789772881      0.569888430600557     -1.665371299256833
H       0.466713386733190     -0.769994549768484     -0.795614117681410
H       0.652811338058015      0.784750289463105      0.028811597071808
H      -0.701566613495572     -0.189772736408855      0.564956034274601
Cl      1.272060941250942     -0.583081905827257      1.776039172195027
6

C      -0.227911617185057     -0.206031828201233     -0.183164543552067
Cl     -1.564462905161392      0.284954609942915     -1.502540307441677
H       0.716620952623401     -0.529505776015895     -0.540816856672436
H      -0.185237607838047      0.766676696636338      0.365361699919276
H      -0.702427258858222     -0.945556856009844      0.411718144445359
Cl      1.646546366357299     -0.195005348690486      1.557881245128826
6

C      -0.191530294929564      0.132310106884631      0.227497129054257
Cl     -0.935118326943694      0.885756569484258      1.753494324949088
H       0.354559520603090     -0.772041619939287      0.542208169515646
H      -0.950265687437891     -0.280599496490481     -0.459160476900067
H       0.417355910982991      0.882810928595376     -0.179145485377859
Cl      1.005082993524681     -0.925756227155759     -1.827841333185091
6

C       0.164840281204505     -0.344166033111321      0.059947309787589
Cl      0.407588476649806     -1.321080657628713      1.656396737761838
H      -0.811347173297690      0.082339971412949      0.220909614627530
H       1.032819839426679      0.370426154427633     -0.043448550561379
H       0.394896825390262     -1.114341442300059     -0.652478398023931
Cl     -0.480964980598998      1.456500859115096     -1.663200959630146
6

C      -0.315038450361442      0.313152023745815      0.049201133234618
Cl     -1.571071010261448      0.429049877370019     -1.460098114782667
H      -0.139438124484798     -0.706296229961779      0.311333123450609
H       0.704992343533632      0.711878898748736     -0.251297246778108
H      -0.760007440195409      0.913883079612233      0.866300304654999
Cl      1.683339999660788     -0.561295023536346      1.417088194273205
6

C      -0.195235589277232      0.225472122774860     -0.243526322041163
Cl     -1.042763324413286     -0.047418228979438     -1.848002013881853
H      -0.960571424670945      0.624926112321035      0.472898533096270
H       0.203907501093227     -0.723931629270055      0.130415673111330
H       0.602119385249409      0.930627004112523     -0.378704057574737
Cl      1.113306499517464     -0.052621830984208      1.924125783253231
6

C      -0.405650729446776     -0.184376374019223     -0.107876164875208
Cl     -1.157896744349358      0.154933665718772     -1.813788280205685
H      -0.833058921418782     -1.093078045245804      0.212832684446610
H       0.684521875284872     -0.208401880781253     -0.220053196179805
H      -0.723776494042781      0.685701233921378      0.475568485164388
Cl      1.320141115573151     -0.074954834971578      1.837021167627327
6

C      -0.079307533648148     -0.108896986910850     -0.350523746985701
Cl     -1.466590324375957      0.651633122952020     -1.388467681236676
H       0.434375790519965     -0.756180234811737     -1.054366598261211
H       0.660827789444468      0.698586504861566     -0.149288630871297
H      -0.512127778133831     -0.542275447117447      0.522106984644381
Cl      1.476881505713152     -0.597680236061464      1.526609891546684
6

C      -0.188501008952727      0.061975315022465     -0.225507517973341
Cl     -1.530297948839504      0.610740306682899     -1.420419069479877
H       0.053700339258597     -0.970484506681686     -0.402251553812647
H       0.629086593936009      0.806404407531801     -0.310664456163551
H      -0.565633581011795      0.043542024191012      0.738872014846365
Cl      1.590833775060432     -0.628311057858511      1.496086407856964
6

C      -0.136901100138488     -0.010342495066709      0.381531370857289
Cl     -1.307472985996398     -1.479867482959364      0.718345235246900
H       0.492845246252742      0.077218070934478      1.251610359676079
H       0.458583232822278     -0.435666142255457     -0.387914884056499
H      -0.672398002803973      0.800039066528583      0.040490284950437
Cl      1.345923095832291      1.470815296360684     -0.873323868308120
6

C      -0.247284070616985      0.093950429435083     -0.166499516181588
Cl     -1.281717152723431      0.319169658046192     -1.698710529563925
H       0.686992093840587      0.534777692638627     -0.276726528800324
H      -0.737873567820387      0.550543515666320      0.694360068167796
H      -0.110755256984532     -0.963652493961945      0.014738522879199
Cl      1.370096808491908     -0.354461073335401      1.742828855378050
6

C       0.270768824818930     -0.134121724353705      0.114752560049936
Cl      1.777930024362846      0.815909893920349      0.988950755101669
H      -0.585100930144748      0.318110862538759      0.641312020977139
H       0.491548899894269      0.170570414700151     -0.939995982495020
H       0.497350701085892     -1.166711638059539      0.316483724408570
Cl     -1.881152405606926     -0.751188014232937     -1.028336796279518
6

C      -0.432072882274682      0.313613479057153      0.147115724426016
Cl     -0.469136626407121      0.252411784103487      2.036221838662627
H       0.379188254203498     -0.423413823804125     -0.124160867886275
H      -1.467786304456737      0.129134320263375     -0.081317997470023
H      -0.012908873569472      1.216768870771617     -0.169042507182908
Cl      0.646850205200195     -0.384899253190198     -2.075417591062092
6

C      -0.090126777807995     -0.199581294975900     -0.212230546905658
Cl     -1.676087189823903     -1.425944834985017     -0.408700588767928
H       0.221252386031850     -0.090991574809877     -1.200241965369230
H      -0.439297379864342      0.681900692009009      0.193317808272795
H       0.667899957522735     -0.775762908846332      0.271454421801039
Cl      1.693832152443093      1.498822227254024      0.501520182338041
6

C      -0.241044039686500     -0.144490240992724      0.105153522650113
Cl     -1.393352473755627     -1.438081167780680      0.878355785916341
H       0.772378422383213     -0.534229685827924      0.301732131670207
H      -0.463596748649948     -0.195949695348247     -0.989469927019499
H      -0.422135044937605      0.834188895844534      0.600398941032580
Cl      1.478245002919181      1.484079212739189     -0.911499971964261
6

C      -0.428088559871384     -1.219447011313051     -0.010098948887759
Cl     -1.211231811190913      0.177764271137718     -1.085388333715471
H      -0.926264609371060     -1.314561779064476      0.943288556337805
H      -0.729678427608491     -2.067739282677891     -0.640389306766252
H       0.624506924979642     -1.317660526342465      0.082492405539313
Cl      1.385603018342152      0.369043608514474      1.077851625301932
6

C      -0.144359825601896     -0.150148310143905     -0.164214862072839
Cl     -1.563807042082104     -1.358515279063369     -0.423109089154906
H       0.605156171534645     -0.570696359814576     -0.812018180672609
H      -0.378792405652305      0.840170149247285     -0.520667282742366
H       0.153132294917739     -0.325186733057024      0.830643652323047
Cl      1.601927601631260      1.410971978648988      0.493022850902094
6

C      -0.222155477462380     -0.038779275346300      0.161495983902640
Cl     -1.381945068615991     -1.461711427825733      0.845899586037106
H       0.757532365399257     -0.109573501888946      0.637200544298921
H      -0.096649662693167     -0.350267543867503     -0.898324590560634
H      -0.711493205510763      0.925645186289898      0.350831119958016
Cl      1.458653808436239      1.461605568940726     -0.903167653538944
6

C      -0.114482892211356     -0.182420849362799     -0.152965030731906
Cl     -1.576683809125370     -1.353564269783021     -0.430052523467808
H       0.691916520429359     -0.440439686875251     -0.800499183452843
H      -0.522485677383798      0.807947226760248     -0.342979890008593
H       0.064708498834037     -0.226967617658673      0.892961677864747
Cl      1.608814741755452      1.411375061887156      0.489002721461617
6

C       0.337231582198996      0.071805942445735      0.275993843328450
Cl      1.498956735849802      1.497495896517080     -0.093756328144636
H       0.263890482747982     -0.118639636646478      1.340978377578026
H      -0.654051413325504      0.492506926417391     -0.121999886373345
H       0.632590496168035     -0.840845435039157     -0.251051576917177
Cl     -1.620109275649739     -1.508546593393959     -0.027277025362295
6

C      -0.147656645251971      0.154095303253925     -0.142433949684118
Cl     -1.564679534804057      0.194671943320387     -1.492148029724760
H       0.750098172175328      0.167859280272026     -0.695495946188586
H      -0.336318926557126      1.116783237276437      0.379623753669577
H      -0.380254795383991     -0.742035558543847      0.341695794628492
Cl      1.613754607308550     -0.262310490628153      1.539672542523860
6

C       0.141890910638907      0.133559626158828      0.184439204347782
Cl      1.854010478854079      0.707888535208710      0.963949022955248
H      -0.041336307357454     -0.939768990724076      0.375135794210024
H      -0.592398815812544      0.875198625248842      0.562722535135705
H       0.298619168742206      0.289967063657215     -0.910480540598058
Cl     -1.892556454753148     -0.759549594209062     -1.027218306297385
6

C       0.330879027155206     -0.054206068006337      0.086358256190081
Cl      2.001299748654603      0.552631146544584      0.762889315538075
H      -0.167655475972836      0.845432129949501     -0.204258227081993
H       0.482944858496552     -0.697125377537517     -0.761469827817351
H      -0.288004383806751     -0.499833708109790      0.868641825640438
Cl     -2.114182436210797     -0.524269841772565     -0.789388218105287
6

C       0.049104691178400      0.158489617190241     -0.291444093888856
Cl     -1.216585111756174      0.108812994928542     -1.770602707766500
H       0.354482845619970     -0.834999126162188     -0.296471371651634
H       0.723073058300599      0.899517129304385     -0.655217877992399
H      -0.473112454422576      0.614399888432914      0.531477038783450
Cl      1.182760698700108     -0.181816324315861      1.881296894515373
6

C       0.239744285279883     -0.082864641050747     -0.019025507809602
Cl      1.638172549612960      1.330318831060055      0.479069081287193
H      -0.417148407709632     -0.119805739269552      0.811270353130212
H      -0.200713132944244      0.202882658965535     -0.932386535506694
H       0.803740857942245     -0.944515615313961     -0.056830830410021
Cl     -1.724686935009984     -1.277748523335291     -0.467563130280439
6

C       0.252010484817376     -0.016306128477325     -0.043119628768395
Cl      1.898411188691711      0.569632248918495      0.860539164425916
H       0.476183536947019      0.053612257589904     -1.122528997763979
H       0.062494915738242     -1.075110573082895      0.292199908999507
H      -0.470399962585944      0.723075505504909      0.251778787407559
Cl     -1.985737638653973     -0.555622006277915     -0.829478838194461
6

C      -0.149803265077296      0.047455698613788     -0.288331562998636
Cl     -0.051602252132156     -1.428141509077250     -1.609169938188586
H       0.649975940344859      0.629297947373473     -0.703397957871715
H      -1.194091268020856      0.453944875823098     -0.249416415570593
H       0.148464789044013     -0.438664424480081      0.595743891020760
Cl      0.113607971731170      1.393734586031925      1.717014153970212
6

C       0.171056326834744     -0.124159996002476     -0.115662404333065
Cl      2.100784635247635     -0.468023077134305      0.164179482454173
H      -0.067437494917556     -0.640098114934474     -0.975650979764737
H      -0.225296288057876     -0.493450238802808      0.793491737155847
H       0.197682748843690      0.893970167897280     -0.233959760590338
Cl     -2.156038403913598      0.516902640556339     -0.113159197724443
6

C      -0.076152847331684      0.070512722413426     -0.129302960937693
Cl     -1.730870797124538      0.447243317935147     -1.308309440665596
H       0.358796270422985      1.020086760373601      0.008481709241252
H      -0.464149593530863     -0.360232859098588      0.792619035565593
H       0.506605735647454     -0.655008507924634     -0.646804595606767
Cl      1.745263164330737     -0.471271878313274      1.347731932779197
6

C      -0.086048576569794     -0.044102181479502     -0.224055634269462
Cl     -1.609445378248509      0.362048057255478     -1.442518659031720
H      -0.406688702990706     -0.850000544622517      0.409786730203507
H       0.719892598805913     -0.370404807287400     -0.841840746321012
H       0.092193681010826      0.871614243257383      0.267394417369331
Cl      1.627072703939362     -0.337187895357857      1.523114120209399
6

C      -0.143340894077596     -0.101614293072601     -0.068679862837328
Cl     -1.718991087507277      0.374222641198728     -1.261386407867022
H       0.542613120781155     -0.064754261584000     -0.956203752235638
H       0.015506905862708      0.754101962382393      0.586941227826756
H      -0.254080896554967     -1.101689823655306      0.324470976763834
Cl      1.758911991192349     -0.328069463936814      1.285929813016949
6

C       0.159422366180323      0.007759109883807      0.160010242570792
Cl      2.088117297574641      0.343609734988064      0.340753815047108
H       0.201354116741626     -0.490955241710694     -0.803163189878475
H      -0.039888279082874     -0.537493230012274      1.072813389178222
H      -0.319700151067821      0.925200494383844      0.113611821097592
Cl     -2.137632723590883     -0.343302843807734     -0.405865553836364
6

C      -0.014733884562816      0.060264345304688     -0.171998231623803
Cl     -0.233217527499050      1.379767305948008     -1.674946237002629
H      -0.614393525702155     -0.814595357585333     -0.451662759875461
H       1.027223729499937     -0.212038624143275     -0.110751096172052
H      -0.403756498691607      0.658570135904199      0.668510636431378
Cl      0.237951586532532     -1.389720104110609      1.730205058029611
6

C       0.093031884598119     -0.155698655257055     -0.025405872918569
Cl      2.110134010760390     -0.376960018424782     -0.051810914245507
H       0.000094879185355      0.742082288403935     -0.534438393922713
H      -0.247635610757456     -0.952058477755713     -0.579804587540309
H      -0.037547256576730     -0.271801209093468      1.085814921448772
Cl     -2.133548320319065      0.443412152865548      0.061227146237556
6

C      -0.069453112381822      0.021767662642162     -0.155344476483677
Cl     -1.733320742248154      0.450256729263813     -1.207615987362161
H      -0.497650956831635     -0.571113145445111      0.676267227631087
H       0.610781877014631     -0.570310399276266     -0.693924221801609
H       0.174719446722889      1.005152722781517      0.097811142676690
Cl      1.748667657987951     -0.453757163889478      1.257969926018049
6

C       0.084128319455473      0.255028490565806      0.144676858388351
Cl      1.826258065909258      0.645026759817227      0.947570743733479
H      -0.150718899590032     -0.732806323130077      0.289127853738023
H      -0.688504191230976      0.839677246350249      0.658208800020702
H       0.226797174533914      0.575872691201440     -0.813162412526253
Cl     -1.837348049586637     -0.750847712243839     -1.000404633190882
6

C       0.081311677892842      0.105948976536908      0.202356202304941
Cl     -0.425312115645312      0.069576182477661      2.092299301766957
H      -0.595253553388190     -0.582580346065626     -0.238643231827737
H      -0.050218601564296      1.112488295898970     -0.184584420728925
H       1.031770595659921     -0.285483935068385      0.163584641175447
Cl      0.386778310528086     -0.112423363410471     -2.153477868492288
6

C       0.137439632016893      0.296865451412970      0.014092605705187
Cl      1.653655957573136      0.294125485502732      1.370403377038869
H       0.631462598013570     -0.312497599287994     -0.718876261307287
H      -0.751224278808081     -0.136224981948658      0.493611016955796
H      -0.015875709692651      1.298707013436768     -0.287289899523472
Cl     -1.696365828674530     -0.418876832317380     -1.360603961019137
6

C      -0.071594839762014      0.099359870315908      0.044839854213095
Cl     -0.931038246708397      1.424543890791071      1.286197242129305
H       0.675103943974221     -0.338091829404121      0.712405843806636
H      -0.956620803635801     -0.498506666096418     -0.103165795841804
H       0.328711545716686      0.715775640199681     -0.758003159698461
Cl      0.953953715730606     -1.454773001206377     -1.297159675763353
6

C       0.006482410070035     -0.092696950487451     -0.184150173255858
Cl     -1.232391213193921      0.344689151843653     -1.764945774238896
H       0.874058837546400      0.462029376788664     -0.521380722154305
H      -0.633483650148221      0.503940299605659      0.502877887965028
H      -0.071123497621855     -1.128912234875088     -0.080866894638532
Cl      1.225376614304039     -0.308648836716600      1.830164178121422
6

C       0.184469571293448     -0.147606873771267      0.085040951379796
Cl      1.048853188864314     -0.535230327834427      1.818738486191450
H      -0.802287296647975     -0.510258559546742      0.174324916996298
H       0.278668219716607      0.916871079369159     -0.048327861555990
H       0.730948073961002     -0.711276460402317     -0.692160002940668
Cl     -1.117249568266644      0.593904725943617     -1.831453143904923
6

C      -0.246090681982267     -0.038559487905218     -0.154795728815003
Cl     -0.074821667756652     -1.102955129367103     -1.796081921710325
H      -1.254618236816370      0.301662719307771      0.076256489212597
H       0.004864948054447     -0.801612201160182      0.544052351079955
H       0.409639233960434      0.778292230888638     -0.466645671568514
Cl      0.182089090846333      1.108105158089288      1.844159750334342
6

C       0.227613707310311      0.044135154904623      0.057327023248732
Cl      1.546076353487493      1.535720484346967     -0.029567127875922
H      -0.602202705983558      0.504385580858184      0.568241666960873
H       0.066381671219673     -0.169284373787931     -0.949228231575361
H       0.727012023903143     -0.726126691505797      0.701322926327549
Cl     -1.628631748566704     -1.539555566356810      0.001035282210296
6

C       0.095116517435386      0.029982078320600      0.135939677487912
Cl      1.575282598529213      0.883674306391129      1.137535035223920
H      -0.724154912717353      0.532028301678338      0.526367322052749
H       0.244537427649732      0.317468274662744     -0.923953130864675
H       0.159124209200627     -0.980162639190510      0.371286097832225
Cl     -1.598396484815325     -0.890117278220629     -1.182845651800505
6

C      -0.144677935985328      0.142315532863122     -0.025602601106314
Cl     -1.540423452972377      0.396471699696576     -1.352446046346898
H      -0.257261034156201     -0.896491320493539     -0.054527729253465
H       0.688378322540586      0.671760947920291     -0.438542100163417
H      -0.584096136365801      0.654328263492260      0.797883025730329
Cl      1.593792405521995     -0.456905734654683      1.352453412778587
6

C      -0.250173470988884      0.203880099542843      0.094138853198004
Cl     -1.496051495774324      0.414817854816135     -1.483833110521786
H      -0.018993471216518     -0.840337380074047      0.041367401309529
H       0.444099248182340      0.903955271471389     -0.201088581348074
H      -0.819425726758894      0.337395675754820      0.961675470239811
Cl      1.592026335532807     -0.495298124246318      1.429134332234483
6

C      -0.196374729133098      0.144340658268177     -0.052051627689920
Cl     -1.618403414381632      0.530091744340552     -1.415252140902140
H       0.717770295674072      0.301593542239658     -0.632582557363833
H      -0.379575796044676      0.954572319955147      0.628831713328239
H      -0.347688230820822     -0.841483032248817      0.301664859489989
Cl      1.685208112623030     -0.590787821605545      1.424417014600479
6

C       0.208557151757518      0.035078281847390     -0.175536762544525
Cl      1.259254661661771     -1.352020079126945     -1.121341963118624
H       0.902120824644271      0.867227735917325     -0.087474448259499
H      -0.650558962976064      0.276202737631252     -0.798795170182927
H       0.015557367103924     -0.457523971020464      0.707047743233900
Cl     -1.337512380487169      1.320631672982628      1.185912561288788
6

C       0.118812363254932      0.116803885421604      0.244909854064332
Cl      1.730352739529593      1.243738987760054      0.395757568501395
H      -0.464409107686308      0.509352265091067     -0.600233880710860
H       0.432145578855582     -0.889095928177653      0.185482228028732
H      -0.412969686352426      0.253846562648079      1.154818047415233
Cl     -1.757948232171358     -1.279734113022599     -0.499780112452257
6

C       0.091350696603754     -0.164919276065106      0.011361207546571
Cl      0.455105159850547     -2.088830826434346      0.462272700418225
H      -0.716680014703726      0.104686891489493      0.695489198104454
H       0.925861929154237      0.418384198534994      0.315466594096421
H      -0.108789767505584     -0.287540614029481     -1.039004900207672
Cl     -0.488910759315416      2.138010818113173     -0.465324490628973
6

C       0.100364511475078      0.110441024323478     -0.153092149345042
Cl      0.470001572551325      1.818077970795116     -1.133017257406323
H       0.087418881598310      0.402944574671068      0.879929928235256
H      -0.869909116270833     -0.165315644782140     -0.530636534286359
H       0.950457359488766     -0.562331623722784     -0.379526036524041
Cl     -0.508782644741501     -1.846264341112914      1.185746857110118
6

C      -0.159735420442175      0.121260130776747     -0.144559062478180
Cl     -0.382466805225505      1.555374783757998     -1.389389542413639
H      -0.954239337409348     -0.586584930533391     -0.224944345560274
H       0.771813895105353     -0.311947715502285     -0.444542345204837
H      -0.077578566093123      0.564688314993276      0.791596961447709
Cl      0.443980660666838     -1.586966895043432      1.434896220737400
6

C       0.170104171234499     -0.134465919932225     -0.111441502140494
Cl      2.085519311769133     -0.459271866408457      0.164820846720886
H      -0.246523702574649     -0.708260281563952     -0.998891614397607
H      -0.264249415822661     -0.577705759606488      0.773285267877355
H       0.198787106979140      0.965804002521608     -0.266834646086394
Cl     -2.134282056513499      0.513934588531583     -0.113060496854715
6

C       0.066101119008451     -0.025973072137361      0.284160852582417
Cl      1.826898180007177      0.182244389983595      1.107726551804248
H      -0.434046250878666      0.418816394607120      1.067817296298429
H       0.148869973162917      0.623087137423610     -0.603019130207628
H      -0.029790240514089     -1.072560249569648      0.087213398490888
Cl     -1.840338357441127     -0.172572611684004     -1.219700702931618
6

C       0.063521873954556      0.060743255213183     -0.094742284360649
Cl      0.473127442887375      1.778197614047855     -1.127133815247305
H      -0.328494084447911      0.521572407164854      0.785697848728404
H      -0.681346732733914     -0.287201485008879     -0.761426186029865
H       0.978821349830469     -0.455966916136234     -0.005040570838261
Cl     -0.493767600996790     -1.792477401817479      1.158687119531081
6

C       0.218645999219589      0.083948622274661     -0.037592371952442
Cl      1.611532319141745      1.273659381941002      0.488857886473866
H      -0.623956505872044      0.710258528798121     -0.359192832538440
H       0.545820634680496     -0.548905054086461     -0.830923031091402
H      -0.085322701843040     -0.374689088784805      0.833153570769241
Cl     -1.680965065404308     -1.296036380619583     -0.465971004365983
6

C      -0.122881573054471      0.022764390388886     -0.161453554116576
Cl     -1.732243850895472      0.473126235110740     -1.209142672861219
H       0.686308936117683      0.411519017684284     -0.685090117514022
H      -0.179848819222428      0.527699040192161      0.767048736289212
H       0.003955266997238     -1.037103851452414     -0.014697603827301
Cl      1.759364636988394     -0.478055832093432      1.261933068782966
6

C      -0.011360937365083      0.203148580077539     -0.003784998801450
Cl     -1.204685800977629      1.719612688691285      0.380403728039227
H      -0.344898031567993     -0.498474629117723      0.775237095405259
H      -0.269643882331152     -0.034365145545735     -0.990128938719437
H       0.990459230346090      0.543062446372062      0.204453234625305
Cl      1.197846070757961     -1.788733197813841     -0.378824497061430
6

C       0.190535629483193     -0.069095307680072      0.169193043397485
Cl      1.771593617172613      0.757157297641044      0.928931819905969
H       0.188735431193706     -1.013819974723077      0.706713947697367
H      -0.646733735793603      0.632610263064350      0.414816180200717
H       0.352255162860445     -0.269782481617327     -0.880296127281440
Cl     -1.833143246477292     -0.715236172919802     -0.993116347885348
6

C       0.088398641156701     -0.133680013578015     -0.086254746663144
Cl      0.558396347589436     -1.698089730820612     -1.164195794570261
H      -0.621316844754872     -0.499572604026454      0.593501778596192
H       0.972712247301459      0.350949872288936      0.313155387361121
H      -0.380240064817258      0.484534511877513     -0.781135360237016
Cl     -0.587526972677267      1.733831100882824      1.189851077560505
6

C       0.089840009375834      0.214469781502345      0.019450056579913
Cl      1.818872195540095      1.214817780474945      0.301213563178408
H      -0.427189863311284      0.746123403804901     -0.760614875103244
H       0.369167922389266     -0.767817841560444     -0.331807491152645
H      -0.355451915369642      0.231769404458433      0.969465505941571
Cl     -1.837554472140141     -1.293456768121246     -0.304307332272458
6

C       0.139913018671507      0.099484718962600      0.037409636150173
Cl      1.950369817912687      0.439682630783338      0.904275873963485
H      -0.035086617267311      1.048598282842150     -0.509771604584699
H       0.272278804023159     -0.814017260558984     -0.566490177276933
H      -0.470128143704230     -0.046473218825554      0.884291562856646
Cl     -1.991151082303645     -0.478738304276888     -0.911492267730566
6

C      -0.187849169023565      0.055895615213458     -0.050018478044478
Cl     -1.738845949829127      0.465088459137988     -1.259446578417212
H       0.493720522024418     -0.390274665017955     -0.736419009049698
H       0.072684660459430      1.073511140320363      0.200037230073619
H      -0.748546668562710     -0.570978589654118      0.649355559757382
Cl      1.807671196292006     -0.487218732285015      1.273181257366844
6

C       0.222735864426568      0.091690540801110     -0.099287500370735
Cl      1.613183766039015      1.275615120210446      0.510382220310447
H      -0.582216364677265      0.745049254202868     -0.183211891528757
H       0.691467937424761     -0.305722850732479     -1.012320381422086
H       0.150567576309072     -0.571064964913305      0.807211933059534
Cl     -1.696037875203345     -1.302935363246476     -0.465700441197228
6

C      -0.107869939116341     -0.225799554887502     -0.066909519746375
Cl     -1.420877602539662     -1.239691394187446      1.069322751796548
H      -0.292291858350183      0.774284426220049      0.207828947954923
H       0.775350094108489     -0.617036941561878      0.366947500504367
H      -0.389960133455673     -0.536555937890057     -1.056848960361378
Cl      1.454778391019389      1.326981136771721     -1.032945337588643
6

C       0.014985898202070     -0.134334848654603     -0.175083898063420
Cl     -0.376952783173579     -0.804481493010016     -1.974018336170559
H      -0.024486569401759     -1.030866611081350      0.400542333415260
H       0.962124797548711      0.368292936007350     -0.290431160948671
H      -0.703914082677187      0.620385370500429      0.026011385812907
Cl      0.365229523316358      0.851195785766052      2.029468862570937
6

C      -0.204100077580506      0.082298461335895      0.009298541303011
Cl     -1.527403278956996      0.381332048589783     -1.538456961226373
H      -0.769393394976305     -0.078721139287310      0.918376975592906
H       0.373443920190553     -0.685903838243689     -0.474288923530096
H       0.336187015777668      0.997412132985914     -0.029233733845658
Cl      1.598254804782073     -0.415835187427760      1.523510334079589
6

C       0.017157851049248     -0.179357984952830     -0.050928321057299
Cl      1.022006730153620     -1.844709562508726      0.276207894527076
H       0.718730963038027      0.553218346046151      0.375290338883119
H      -0.042175292030009     -0.135403907745655     -1.071637831172680
H      -0.783872435503781     -0.429200075625502      0.564538606494949
Cl     -1.024768582067324      1.905802523854021     -0.255204695060243
6

C       0.054509694308322      0.047578721743847     -0.181385514770241
Cl      0.370655923576649      0.232444002120502     -2.137431108592949
H       0.571137765801197      0.930980649109799      0.128101224035788
H      -0.960131202648839      0.060413780488844     -0.125457937193545
H       0.459935581236337     -0.851293847406907      0.077891067787775
Cl     -0.391141836690380     -0.252548075850129      2.196597336757634
6

C       0.162887360373560     -0.132057989286039     -0.035503440239509
Cl      0.617292680254707     -1.612401728414952      1.350658709107265
H      -0.782465548562186      0.188674321329472      0.401985436385289
H       0.982851951443692      0.620911382271913      0.168344351323597
H       0.184536640318896     -0.669313338932980     -0.944515463921590
Cl     -0.683426460593054      1.653156424204184     -1.327989852059616
6

C       0.023035544280930      0.148094303862052     -0.159004277478047
Cl      0.736604848598787      1.576305629820325     -1.385199472153928
H       0.373442863122023     -0.779381746654749     -0.601207930356878
H       0.466180813864241      0.344532512670327      0.756389051141525
H      -1.052184645370829      0.315801397644350     -0.171227495671943
Cl     -0.738365595177825     -1.623097180304299      1.439528812708915
6

C      -0.096100801748292      0.199087422452763     -0.116872214789424
Cl     -1.719847581387299      0.307727070126404     -1.255503386586724
H       0.687379511318355      0.378634875042081     -0.804280472901198
H      -0.155878590998000      0.837621285786099      0.699016141391397
H      -0.242169595627303     -0.850676022476108      0.150340174793868
Cl      1.744181030033516     -0.385575978745294      1.293819768019901
6

C      -0.089653738201051      0.179363608418527     -0.080985582512639
Cl     -1.707340140492363      0.463184607360304     -1.173488947776022
H      -0.134939978497911      0.958476946030459      0.692744766320288
H      -0.230467252170314     -0.938347465455635      0.075618488866965
H       0.508058185124909      0.405153913640788     -0.842390109350092
Cl      1.733659996273488     -0.536048414471281      1.203033007030044
6

C      -0.150145541733011      0.023185899239607     -0.051460157956086
Cl     -1.705937987789412      0.468974876146277     -1.228860972334175
H       0.606621465380755      0.461524595195556     -0.608255044936030
H      -0.453854806280646      0.501187583139355      0.842133575150669
H      -0.112671469846831     -1.042446125666800      0.016169574747011
Cl      1.755669501216431     -0.474563423871416      1.239186486224398
6

C      -0.131230468405377      0.201265442950287      0.033542796285630
Cl     -1.152537172030435      0.229717466182180     -1.780388672032217
H       0.750825499830015      0.690817910865391     -0.319041517822725
H      -0.853441642805890      0.738590319884779      0.629614601935572
H      -0.081061009559960     -0.870843250257579      0.076565593350267
Cl      1.202222806043750     -0.313791732348960      1.758015800013325
6

C      -0.006138817749957     -0.053106976256117     -0.086454231027062
Cl     -0.846625984507682      0.034368015551294     -1.928898672849243
H      -0.905899761693803      0.294425447320350      0.339392532987873
H       0.263745006427655     -1.111328997321706     -0.080378446470036
H       0.708991250674686      0.683156537679508     -0.340683001694202
Cl      0.846805452846823     -0.012571545022865      1.960512891054151
6

C      -0.038709048011597      0.062429882308763     -0.083199868552171
Cl      0.286280296945066      1.045788591764548     -1.872757770339419
H       0.900187186633588      0.302744921298441      0.345912970887142
H      -0.971031614340660      0.505549310867650      0.171864742214851
H      -0.110492203450605     -0.923961905073014     -0.509778116825629
Cl     -0.268008880869658     -1.063651844292650      1.900719689327659
6

C      -0.006017822806953     -0.060626676893051      0.092066899057201
Cl      1.845007407433386      0.525304392967868      0.805994654402241
H       0.342347472825281      0.353265533323977     -0.908668146875712
H       0.225188953354859     -1.042879288978014      0.310418880879183
H      -0.405792900837909      0.532118362050326      0.838022979675330
Cl     -1.847567559868139     -0.500284861997073     -0.844006147433745
6

C      -0.066606645126640      0.204434332898614     -0.006048571105737
Cl     -1.232233425730186      0.090526482033866     -1.691987553894734
H       0.541023268051205     -0.574828728276074     -0.494179424288305
H       0.298298377782274      1.210601304451089     -0.000627653552712
H      -0.875392878339440      0.043487983990971      0.671054700392588
Cl      1.255826436082302     -0.179106324547064      1.689025403937549
6

C       0.031000077423414      0.204695395380767      0.008111809707017
Cl      1.771522703192232      0.615651203886500      0.950146914872249
H       0.343019067399851     -0.085651249154424     -0.975000979595009
H      -0.283655078927367     -0.528994373241574      0.824687331486714
H      -0.412847555611052      1.154962284068205      0.051553208527125
Cl     -1.771974903312298     -0.700368709919900     -0.950087124274063
6

C       0.138398465621222     -0.094795933855394     -0.040548454876230
Cl      1.930074466975967      0.406098727734687      0.592977294131401
H       0.233424468051496     -1.097576017496280      0.175005829093664
H      -0.300949150189666      0.514109587093941      0.734221479197743
H       0.136070959385449      0.274675655053215     -1.077481059736996
Cl     -1.978915048585051     -0.365200136392261     -0.574454663017832
6

C      -0.066949521776564     -0.177721559374604      0.002611227317630
Cl     -0.692132627116692     -0.597720540082008     -1.831578441322790
H       0.916304221534077     -0.153013735209683     -0.398134097434450
H      -0.734096126442651      0.654007284112694     -0.002958049566701
H      -0.438127359537916     -1.085240161372170      0.420026088969593
Cl      0.722093059404997      0.674548022028887      1.830155342174237
6

C      -0.062748852049950     -0.155939020881860      0.060444494118087
Cl     -0.712824867110768     -0.611342771561482     -1.895157648111265
H       0.862869280433131      0.016435364663138     -0.466830389494291
H      -0.823596415989044      0.550241585304661      0.008884272352773
H      -0.263822119985960     -1.168050668108137      0.365044223667695
Cl      0.740470060666638      0.681276996884392      1.877319743732443
6

C      -0.097454140015060     -0.067296364814823      0.020515924729722
Cl     -1.049211967869837      0.178611035417319     -1.730984768627110
H       0.853132246261836      0.348947992951395     -0.316904267788459
H      -0.818110682845713      0.409836443276063      0.657268158023868
H      -0.222296707862569     -1.118281106009320      0.027481142503021
Cl      1.087555974113044     -0.145587924530730      1.713574202620663
6

C      -0.081556889304466      0.061160391575726      0.097998514608847
Cl      0.205574112694379      2.051456431818593     -0.462840117043314
H      -1.137083639807841      0.094439792610643      0.220148635615047
H       0.548583945838047     -0.225219427071579     -0.742275860221710
H       0.478602187715239      0.017975253711626      0.978584337168954
Cl     -0.174816525000693     -2.068970977585067      0.416657636692719
6

C       0.068372000874376     -0.234688240855320     -0.011437533910438
Cl      0.662844202637189      0.331898011081094     -1.845701524916294
H      -0.806222218389095      0.363721847118939     -0.268192534533966
H      -0.064540284177454     -1.282302404877882     -0.270383745482860
H       1.013492168021187      0.089742055549294      0.368016723323549
Cl     -0.690068112518162     -0.228814522473485      1.854426496790623
6

C       0.002509104555415      0.002710515532414      0.114051474038746
Cl      0.321386100368358     -1.162800221313717      1.696256904599949
H      -1.108981244765971     -0.009985307155105      0.147125741604285
H       0.434434678297549      0.908399818992422      0.555446846373087
H       0.333998627632297     -0.620153216862036     -0.657652705776144
Cl     -0.312552941904826      1.153969660315269     -1.736176551876085
6

C       0.079114464686683      0.001503672652703     -0.051649934088346
Cl      1.669540560245864      1.208650589229876      0.256576402076448
H       0.070786022281695     -0.059810810475796     -1.105942890410631
H       0.507288846200993     -0.888314101103290      0.319918869471238
H      -0.629299367117639      0.635125814365836      0.531550642717704
Cl     -1.694889207375027     -1.200260110308591     -0.231840816079767
6

C      -0.070644890726527      0.046160750499865     -0.086665813029228
Cl     -0.598599963534781     -0.338622855733462     -1.998719921592183
H       0.617064165328912      0.771475390565328     -0.401088317644692
H      -0.953398360636882      0.455582489993702      0.246026149680020
H       0.201851804774108     -0.983193974147341      0.142748640598995
Cl      0.626359456684995      0.316048762872626      2.028433747145883
6

C      -0.006899944565646      0.119282135862179      0.126127661954612
Cl      1.934126182949342      0.555746873964779      0.426542618105088
H      -0.375887717149894      1.156139651370680      0.067701566940883
H       0.343108096579570     -0.541042011039167     -0.646550309703429
H      -0.197602113512019     -0.286521596455415      1.085205863601601
Cl     -1.925237606866645     -0.605504346068273     -0.483674559587257
6

C       0.054757878874568     -0.032401687300066      0.066342721430942
Cl      1.975731959432380      0.395967299937851      0.571575620930091
H       0.012694977070780     -1.065268103529249      0.285116508135346
H      -0.425428249483446      0.675988100445963      0.744408237071738
H       0.209133277878109      0.249828724723045     -1.002728542424478
Cl     -1.988495516235545     -0.381023899239750     -0.594815479872594
6

C       0.084975663567320     -0.007424953914708     -0.073814426090905
Cl      1.585142520840606      1.250657122888811      0.465326662342832
H       0.699974529978022     -0.853574528326703     -0.296283670565941
H      -0.180222215596018      0.040378715120198      0.972602372227328
H      -0.187629948747102      0.707100323611030     -0.792858280610758
Cl     -1.623377275133038     -1.245124672254633     -0.437003475675439
6

C      -0.080462943409259      0.200538716202132     -0.101290096541831
Cl      1.052848392730084     -0.449452808681428     -1.668109679656880
H       0.637335749080407      0.964744119230488      0.130730761498469
H      -0.912647700144731      0.506602835513732     -0.688547299715196
H      -0.035205546813557     -0.867850641279631      0.154890025172548
Cl     -1.016756938536858      0.364347172453606      1.713885286841986
6

C      -0.005433825730734      0.010135937476946     -0.091975104704048
Cl      0.599386419000908     -1.889614744925012     -0.620121020515398
H      -0.497957608464347      0.292569312397902     -0.973748864607657
H      -0.435816705164441     -0.436607532832696      0.803992458780613
H       1.050366516684889      0.269608772903254     -0.021993261608628
Cl     -0.600860587120195      1.882610009750891      0.656735876576775
6

C      -0.114302365701718      0.124563627968087      0.047018493977561
Cl      0.370871636758338      1.884722356387655     -0.797126723051534
H       0.791863925315411     -0.279999157613247     -0.324476367025682
H      -0.171920074458782      0.453149163274063      1.079698012720414
H      -0.988925927303796      0.008464769691884     -0.595470952880291
Cl     -0.321652464755488     -1.932090520818718      0.776653723629209
6

C       0.058225337047844     -0.014268590072120     -0.084926347904272
Cl      1.971860929443082      0.366942980429414      0.550892109438323
H      -0.165037564217670     -0.506595995385908      0.803566753019567
H      -0.150854449545605      1.001546764552344     -0.192106221505270
H       0.390124166088910     -0.543532581396235     -0.960682619714220
Cl     -1.993699308366246     -0.360727169369241     -0.512187843441623
6

C      -0.093800794039566      0.223360635112783      0.187427201313781
Cl      1.698278135125292      1.200207606609453      0.590765890356565
H       0.216354692935170     -0.668742060914042      0.703899256405023
H      -0.855116950463810      0.805263165993665      0.624637889304495
H       0.014622017805081      0.245071717142949     -0.847741798975989
Cl     -1.648749934875639     -1.286735960717792     -0.667940215447913
6

C       0.102561245619228      0.007040676234880     -0.071696098961354
Cl      1.602599787161637      1.400734103275070      0.159162146914625
H      -0.622595223108462      0.535012672283813      0.521902673659383
H      -0.053924170879796     -0.009490855606856     -1.151231383307959
H       0.630120760853615     -0.831291923159228      0.360070510840359
Cl     -1.636029781489782     -1.394425197631151     -0.127214217181958
6

C      -0.033764865530117     -0.014666882318309     -0.126799669150927
Cl     -2.012305935831478     -0.282722145045440     -0.112253615222031
H       0.096275600620032     -0.201282885199149     -1.218003446718484
H      -0.163045481327785      1.006489443496505      0.132595309525200
H       0.018908719200056     -0.851627418276408      0.541378339520051
Cl      2.025106890716685      0.289011458173349      0.170684443493599
6

C       0.094853284616292      0.114873286054745     -0.174471020631714
Cl     -1.777034751706424      0.405467383666803     -0.994562557357312
H       0.706868768015184      0.712602122935564     -0.794183393401113
H      -0.275192961446066      0.542075870512406      0.722911177160668
H       0.010240882606311     -0.913592818302362     -0.409210450895074
Cl      1.732331371615743     -0.454086760122422      1.067338240214255
6

C      -0.031096016988656     -0.073362002277278      0.086141506554995
Cl      0.402412774294348     -1.977204580943820      0.611613979282509
H       0.613200759569708     -0.010666509237453     -0.763569840690451
H      -1.052763069173253     -0.233164443657074      0.046156760570028
H       0.404071253634342      0.436749297563011      0.941087378732249
Cl     -0.390867802659173      1.996575224608918     -0.647160081630417
6

C      -0.047781043539572      0.092094579546043     -0.074685755403095
Cl     -1.077561754036850      0.115452365678394     -1.855249021667618
H       0.747657393332034     -0.538250283229630     -0.391633846067549
H       0.197403413589143      1.143961826013580     -0.107457710993657
H      -0.837462076108778     -0.408900800287967      0.451518797129040
Cl      1.090691192493665     -0.152251610343100      1.881906396848393
6

C      -0.078408022073091      0.148010130056520      0.090954010617224
Cl     -1.742557281578314     -0.530179427466308      1.029922170195945
H       0.238717953030502     -0.900706357872338     -0.094375866019178
H      -0.675505440480023      0.671569094929168     -0.659124754932336
H       0.339233798804514      0.704398743062811      0.907174737016931
Cl      1.771896995859692      0.466517558804242     -1.065108408010275
6

C       0.057022032075423      0.054885461830693     -0.088993988408888
Cl     -1.003045066690760      1.823523723250773      0.123729040171625
H      -0.824258645177366     -0.239423024973618     -0.664602557345447
H       0.934367322854669      0.491422162821962     -0.573833035884874
H       0.118663489722863     -0.124494107904113      0.958191219544830
Cl      0.977220130950386     -1.845745284667771     -0.085607936548072
6

C       0.115355100603693     -0.133259539972272     -0.131367053821080
Cl      2.010211140905014      0.438115486551013      0.639839475182782
H       0.160548051053667     -1.255065728105379     -0.022185694938770
H      -0.275002206568502      0.421197449047341      0.669577900360025
H       0.189899686707960      0.332774304853075     -1.039519811488063
Cl     -2.051440455680606     -0.378716810652364     -0.584180397316501
6

C      -0.140112460836789     -0.073616653561217     -0.005253849582587
Cl     -1.114829391429041      0.186682407372871     -1.837847414703717
H       0.755819098945494      0.444710351596882     -0.386569675150440
H      -0.757339118508440      0.471857907720292      0.650261987698002
H      -0.152726137418711     -1.107819978906377     -0.025465485752946
Cl      1.166687526643386     -0.156301833063424      1.832853658594445
6

C      -0.059330878159017     -0.193648522658734     -0.013595616483514
Cl     -1.736107279283488     -0.495240012298353      1.048132056565933
H      -0.036429978443792     -1.017754805887321     -0.649146625036423
H      -0.343289377931498      0.686438637592943     -0.505202666574974
H       0.581301245766568     -0.116349501872051      0.833050651726722
Cl      1.750477621541890      0.573580192867638     -1.034389715844142
6

C       0.100009299139117     -0.181768202209867      0.030409631667027
Cl     -0.307744271284534     -1.583698763711297     -1.398683415198335
H       0.479203750260936     -0.842883083401574      0.820437658337440
H       0.773766733404528      0.367401294745051     -0.612210229976867
H      -0.939083461353562      0.085941972256165      0.038982510207177
Cl      0.264934403570820      1.656360936113913      1.381350898864653
6

C      -0.059060495546717     -0.170230833556161     -0.003571173798093
Cl     -0.694353607949509     -0.599098460687031     -1.831707382648375
H       0.990347770169507     -0.177956492982759     -0.206753070734763
H      -0.634056526163477      0.709495195636634      0.086483748328362
H      -0.415901678143697     -0.987156888669830      0.579333249563732
Cl      0.716059191295699      0.669730496606547      1.819864136665657
6

C      -0.003121967444500      0.121176193362245      0.006967277348963
Cl     -1.273754604749286      0.330035410530854     -1.636049658817811
H       0.440960845105351     -0.754885009604195     -0.457367812076825
H       0.534415411704558      1.069319210352774     -0.106517067460302
H      -0.812017959127061      0.098252062251618      0.633451510260670
Cl      1.270167377299657     -0.382826243015430      1.631710952696267
6

C       0.096896837575159     -0.158271390848114     -0.104534193657429
Cl     -1.386617134189208     -1.381761756146147     -0.704447502343214
H       0.192634745181451     -0.664019609274263      0.835442582757665
H       0.876397372751228     -0.296057708319225     -0.815234014295427
H      -0.575378318227749      0.687697882476570     -0.106624037548315
Cl      1.339750252772603      1.443131464074909      0.742322452776406
6

C       0.080782159759934      0.028194801482272     -0.107437387607490
Cl      1.620347836635105      1.265073805023121      0.478472193212497
H      -0.665773954979315      0.737432759409046      0.178932549992169
H       0.477346138376802     -0.113669849080154     -1.102746881305094
H       0.260026665526581     -0.735543841865919      0.575878281099307
Cl     -1.649753934254051     -1.271448207889492     -0.432177411797298
6

C       0.039037737439443     -0.093667942117818     -0.098964850288183
Cl     -0.737131199441379     -0.073246353015975     -1.907403831702098
H      -0.543880467099527     -0.859671975759127      0.332763949203184
H       1.077396132465537     -0.419803348606266     -0.327215435060992
H      -0.291948390971072      0.969643541668248      0.042651527934794
Cl      0.717035795295345      0.113792364009939      1.939564090500369
6

C       0.086511656874350      0.003061705300297     -0.082753749491971
Cl      0.214328680082119      1.980334128972899     -0.529408247622385
H       0.938928292626059     -0.335981205322426     -0.693327648496577
H       0.342597757204985      0.169875798048182      0.934576371216437
H      -0.872727995565938      0.090821043330962     -0.580220482137449
Cl     -0.255264080629843     -1.979230814544366      0.567084942083326
6

C      -0.043584993069146      0.232321752659587     -0.127556035880914
Cl      1.047373572348505     -0.404969668998760     -1.747288249859409
H       0.745538020210759      0.764447337205297      0.359034737207537
H      -0.845909058144684      0.761443934862612     -0.594086846398113
H      -0.190799851389869     -0.791282241535470      0.242961735561948
Cl     -1.024327038972146      0.305367342511545      1.790281272245394
6

C      -0.135910996194625      0.028603306839216      0.049846724397014
Cl     -1.484030528624629      0.540208374082439     -1.324126244924372
H      -0.597554276650470     -0.837297393467580      0.463391806388813
H       0.597727901516933     -0.119389510873788     -0.708529150058098
H      -0.109168655775406      0.977614113141343      0.519727218403602
Cl      1.533178454335498     -0.550494663078723      1.299429613035372
6

C       0.026335224464063     -0.065588786730856      0.057452871942687
Cl      1.979072901076620      0.407792066597452      0.590125317667983
H      -0.086145429591696     -0.823919866056400      0.696515226587735
H      -0.335638429610725      0.947075890835805      0.256341198369526
H       0.465862800864826     -0.246641125335088     -0.954112488492541
Cl     -1.989249035187584     -0.382058360002645     -0.609555510414438
6

C       0.026409002714573     -0.073912816019075     -0.021324591294103
Cl     -1.061766730861564      0.119065986071661     -1.857718578697742
H       0.022368901255646      0.954248829165522      0.056676986139692
H      -0.719222938313166     -0.675615315078502      0.384509588413451
H       0.857025402367370     -0.494913801198962     -0.614808046433069
Cl      1.048264579441607     -0.087873394742672      1.869880499986550
6

C       0.096504451863126     -0.157366412979400      0.033012041934171
Cl     -0.309193182568450     -1.593766931296386     -1.403192504355374
H       0.414239264115778     -0.837145320558534      0.791004169741825
H       0.851291382235232      0.356481139325282     -0.504019820712500
H      -0.918561663382732      0.151393060568736      0.030615851303139
Cl      0.266630144312856      1.656447700716029      1.382976745889763
6

C      -0.032890263530533      0.145484856742769      0.129148697262963
Cl      1.988031271156942      0.373098707358764      0.569195178017623
H       0.056024272148647     -0.865942416876308      0.604662271481914
H      -0.386328814005793      1.018869826315935      0.586281560026279
H       0.115836711135373      0.238551394245079     -0.886385302106419
Cl     -1.970789281632761     -0.433522663591532     -0.621612667452396
6

C       0.042467784953757      0.169693781487354     -0.211680517712281
Cl     -1.911103626206383     -0.364607599660715     -0.654644681275613
H       0.431296474969074      0.585065447757074     -1.155413583283334
H      -0.337112605235404      0.830214840288392      0.462626504195484
H       0.091803132998663     -0.923615392646667     -0.182678848716805
Cl      1.891426462205416      0.293132558080771      0.751258626366436
6

C      -0.057350337469046     -0.004575407965504     -0.130279321487762
Cl     -2.057110058077200     -0.293821761449664     -0.121092090260674
H       0.108388762288627     -0.162824601450325     -1.140122632792711
H      -0.076978236212341      1.016681228816395      0.257489341983231
H       0.128564177057171     -0.721149214204928      0.655284798451859
Cl      2.071992438968110      0.291598521748867      0.171697230195434
6

C      -0.019546328850737     -0.046497868322845     -0.035074220591440
Cl     -1.074277055455624      0.295770219037877     -1.709637265939605
H      -0.399006806171400      0.834097679702637      0.347955097844974
H      -0.659359510616298     -0.946714924429472      0.154673469578057
H       0.946476267085117     -0.070822429824986     -0.540017574899366
Cl      1.084081177484563     -0.274800033188143      1.722584080694460
6

C       0.233196623941680      0.175481779529250     -0.261445424645885
Cl     -1.527103012668022      0.514280132293464     -1.250415852303391
H      -0.256604253302811     -0.755658969263280      0.011236323265521
H       0.940426915302936      0.127140555992412     -1.093133077747893
H       0.174634617006561      1.019776527564090      0.394663315319292
Cl      1.423682714010710     -0.584861227727401      1.358538625282151
6

C       0.144746716474756     -0.020399050638815     -0.033266792091780
Cl     -1.361609914509344      0.340496948649076     -1.674218441814759
H       0.930284287605900      0.305654203614623     -0.724206193483084
H      -0.401056749663567      0.811962842925794      0.445698748361707
H      -0.271137445244804     -1.033313478820105     -0.144103081357670
Cl      1.305228881363576     -0.335982562162130      1.697506420672440
6

C      -0.101970886823338      0.133777275733536      0.092442288151176
Cl     -1.139227421977054      0.228151443387773     -1.784493439206656
H       0.790956413519879      0.322274748882933     -0.464800012600293
H      -0.624115043238987      0.963206461072815      0.541340199988980
H      -0.583784539786151     -0.796884259269390      0.226428038742384
Cl      1.185632246701900     -0.287370190499928      1.744557859660176
6

C       0.035896137148228     -0.143337080804102      0.013217863795902
Cl     -1.243197662821544      0.388815356650639     -1.584678025054970
H      -0.432344592583945     -1.128757577090198     -0.004815296624685
H       0.880695859574345     -0.013073416742216     -0.650769698682851
H      -0.415502375250114      0.678340666496069      0.448574295016172
Cl      1.230101465750664     -0.327071494097964      1.586085839549739
6

C      -0.054487706413170      0.025411427728244      0.044110776838053
Cl      0.350244487611704      1.925112895389077     -0.781054042894979
H       0.453664235123455     -0.424984616001481     -0.805240240764689
H       0.521677801702452      0.264511680477568      0.916691058364705
H      -1.111469437228052      0.293017060317851     -0.024875086436538
Cl     -0.327912519732038     -1.937491488794876      0.763646909534913
6

C       0.008201285679135      0.019484305745195      0.133107374917927
Cl     -1.495425442615840      0.472544944766753     -1.345299950202957
H      -0.721029581452484     -0.616749989522717      0.571899294466178
H       0.517246606806026     -0.356744147595549     -0.815588721018955
H       0.013422335967959      1.090459275684864      0.250359363814084
Cl      1.498059515436594     -0.482472359604060      1.300011488231178
6

C      -0.138866044212406      0.059991392849525      0.240903035691801
Cl     -1.060174978868261     -1.607402861441088     -0.808874015487191
H       0.412789938154020      0.118231560254642     -0.673373112582169
H      -0.988699547602067      0.675271360749051      0.313266195024639
H       0.033496697465424     -0.550545952343469      1.045557958222716
Cl      1.122648103616157      1.580168524517944      0.707761998260480
6

C       0.054763508001727     -0.056449022864996      0.068126513714518
Cl     -1.623607343568821      0.424610967694605     -1.406397924373891
H       0.522317931476906      0.823440359595935     -0.236104687871062
H      -0.740969380018853     -0.098700488247744      0.819064984203607
H       0.251141259716306     -0.835432749086266     -0.653509770452189
Cl      1.604128804097087     -0.402337691689212      1.385321656776938
6

C       0.040904286866180      0.065428906363806     -0.058934876898988
Cl     -1.385827106081010     -1.413371780623834      0.860274861050584
H      -0.788397051908746      0.206957797493814     -0.683341767712463
H       0.016972470154300      0.528804351462909      0.907901589626491
H       0.547354218933080     -0.901623220049160     -0.306790417499712
Cl      1.378339420218481      1.395919632960286     -0.837968648165301
6

C      -0.057087434497802      0.008322662363909     -0.106013638715766
Cl      0.305213514867134     -1.075229822294972      1.856077000839434
H       0.916766020312295      0.229493487896576      0.093064591327604
H      -0.495770576383762     -0.871935517927128     -0.508677286533867
H      -0.749835013729125      0.635108009694576      0.396650574261372
Cl     -0.276521061775128      1.072618516084688     -1.819618788356308
6

C       0.044409491966590     -0.169466497688262     -0.040099836033676
Cl     -1.278313759921403      0.398880908401495     -1.618612175979806
H      -0.503126238060020     -1.086831925768010      0.034284105959330
H       0.909736874628166     -0.190753874487243     -0.699087220585398
H      -0.269038647243988      0.782699423296947      0.343159114926621
Cl      1.259355368574447     -0.327391273092431      1.641344370120777
6

C      -0.057440179812346      0.040407230793861     -0.076746563085706
Cl      0.621220644352107     -1.953199687631354     -0.577960455562177
H       0.301713157554659      0.327210446326887     -1.056320562958703
H      -1.013421091789340     -0.264421564170661      0.174361901053445
H       0.717571608008768      0.057569622089702      0.664994505236521
Cl     -0.601925766593013      1.936086778707661      0.610132608993567
6

C      -0.117119235290644      0.048153585906803      0.012895208977739
Cl     -0.068730385557942     -1.112713850182658     -1.761400917077822
H      -0.930075362040384      0.569656175296885     -0.345627568754310
H      -0.452237229113990     -0.813966927219852      0.557862833505510
H       0.835354840342276      0.347503153130930     -0.332035562111145
Cl      0.123964590011909      1.093464466240647      1.760438275179553
6

C      -0.051011826637463      0.099633367568146     -0.118590936328673
Cl     -1.446848643414825     -0.882969725852590      1.270759824620143
H       0.193194221600223      0.756536095243774      0.711561343037474
H       0.454631860544382     -0.861097536666222     -0.216762769628545
H      -0.875834345771068      0.297009229789026     -0.777509552592733
Cl      1.470615508844432      0.843740283016615     -1.222540687715778
6

C      -0.024260617882405      0.007749195355061      0.107012585726324
Cl     -1.567946770915739      0.631195388225649     -1.255989256665146
H      -0.568828081398848     -0.845882857780268      0.275167795828736
H       0.582298348907798      0.013603568264415     -0.782960628009903
H      -0.075070801223688      0.853915443130973      0.741215489976057
Cl      1.577918212928964     -0.634436145016991      1.213094525883292
6

C       0.102070469080147      0.110518158713759     -0.075390549639195
Cl     -1.659290376611168      0.389891600766930     -1.228601909125956
H      -0.507621489073870     -0.586528131264132      0.422754792393334
H       0.586570588894219     -0.191853894776628     -0.970506214684747
H       0.074321705737859      1.138960865566176      0.104498759945272
Cl      1.620349181233877     -0.437589684675302      1.266749005751095
6

C      -0.067976279580847      0.015043433159619      0.150379407915253
Cl      1.680245415796335      1.232195272468587      0.340070394339619
H       0.513486239284006     -0.903784757757563      0.193447337120531
H      -0.480924432222565      0.396983556984324      1.043121270077663
H      -0.273590900935403      0.492716554700806     -0.743715845372662
Cl     -1.650360495608169     -1.236891728108617     -0.405035208229336
6

C      -0.062430214148094     -0.094370654899578      0.064471433751237
Cl      1.859861357353140     -0.164194438016224      0.910781465900357
H      -0.008199782418373      0.880654717349643      0.404271102456477
H       0.409992365117404     -0.252600415916703     -0.879228781661880
H      -0.358390542445520     -0.878946560860157      0.757402715194161
Cl     -1.839943161427669      0.203302627959815     -0.940656529005082
6

C      -0.124826387658459     -0.065274150018169     -0.036183435954896
Cl      1.975118996567474     -0.624422255405321      0.550908483687124
H      -0.226162005544126      0.090865866228640      1.016974178334522
H       0.508051568327858      0.555892701396019     -0.594379053198168
H      -0.222825856500165     -1.097078169874280     -0.360612190499552
Cl     -1.934505356899436      0.659342706038231     -0.540411432879196
6

C       0.000725025827535      0.087330023449667      0.045096830956766
Cl     -1.468859690671835      0.373254137336318     -1.361395777735567
H      -0.510420527880214     -0.809298472753426      0.394153532598992
H       0.686830003822422      0.035783344693371     -0.734265803059571
H      -0.178109606752813      0.966868692873049      0.517489189494199
Cl      1.468662383101815     -0.408340774994613      1.341072675591505
6

C       0.139218850170323      0.115470306736086      0.033793542225538
Cl     -1.525289798147668      0.288613605445505     -1.436664619970074
H      -0.573564992301684      0.585723103279292      0.623075201483843
H      -0.047552258442138     -0.914543691762816     -0.309832718786268
H       0.733718930980885      0.699409949331596     -0.605985025723967
Cl      1.474918568159637     -0.338274195852875      1.433538815955956
6

C      -0.082055693521866      0.238976956842961     -0.002194691628461
Cl      0.848448669750908      0.030927991458825     -1.939207629023400
H      -0.949647783978222     -0.149598960839569     -0.496024462708135
H       0.743975508542974     -0.359546045444461      0.373017310309436
H       0.079986477942242      1.268138056388352      0.062791754536178
Cl     -0.817073148770277     -0.133478547824041      1.941663413570495
6

C      -0.149494178838665     -0.055738741301056      0.168167244438052
Cl     -1.479257972925225      0.286635067918795     -1.445614732902371
H      -0.788339680671967     -0.648998336302682      0.800111714103437
H       0.418721923819845     -0.497117686769329     -0.582789896303495
H      -0.076319513516509      1.033183954002268      0.316454909370208
Cl      1.542588843180852     -0.264538776031969      1.373459480041078
6

C      -0.000113768914645     -0.018240964825409      0.025837841416532
Cl      1.597567003977588      1.244297802783521      0.439177390628714
H      -0.473341497252108      0.865435170583510     -0.336106423187061
H       0.643791994276697     -0.487729089439028     -0.690666019026665
H       0.044203979929691     -0.254367850922222      1.114718528822081
Cl     -1.603632031744496     -1.241624536423728     -0.450432340376437
6

C      -0.001533401790610     -0.063259815534877      0.123520368215566
Cl     -0.083454240951340     -1.292908064072051     -1.649546352392804
H       0.663557182082982      0.584522760068936     -0.415483848230224
H      -1.093282163907134      0.051395675053584      0.023261499659327
H       0.342551173411152     -0.919980921505456      0.641678072351723
Cl      0.086452517052493      1.322418603724032      1.600602642598503
6

C      -0.002840968009266     -0.090607502025080      0.028215984619536
Cl     -1.277784693250055      0.389741142768784     -1.643214745273582
H      -0.337507801506334     -1.094247063843113     -0.019541270404332
H       0.810319047332356      0.186083301984397     -0.583985206798900
H      -0.590970734962866      0.661259018400784      0.558054948730202
Cl      1.282107052398402     -0.352021349024682      1.634947696174478
6

C       0.125824428532866     -0.189202498784809     -0.095638123869975
Cl     -1.700619487665065      0.472728839805185     -1.219037588048124
H       0.594755464721743      0.644819606552886     -0.535417080815392
H      -0.628483494153826     -0.011839137249765      0.604513963534743
H       0.090344086887356     -1.096024126029079     -0.682554946231775
Cl      1.656378410175009     -0.395457775802811      1.268884562203894
6

C      -0.117792954552030      0.174596254723667      0.040664688249450
Cl      0.615990803522251      0.524104582949803     -1.991996269807004
H      -0.847253080177040      0.946006853089770      0.042274198854884
H      -0.402896064081276     -0.770909801797146     -0.340543900739860
H       0.930459067806780      0.403333519575057      0.335912128635627
Cl     -0.566990556013451     -0.599707788335394      1.977148113622832
6

C      -0.087593800270554      0.110256856404263     -0.086520366662228
Cl      1.999720074783539      0.436743321599423      0.011183920488676
H      -0.177747403241355      0.935522238662344      0.572273857506914
H      -0.053397887416509      0.226884341548256     -1.142152941972839
H       0.172427967899893     -0.799618816452139      0.435975164002002
Cl     -1.968372368256325     -0.484415681772632      0.021937977277361
6

C       0.120445094637063     -0.194658861336336     -0.145074422703217
Cl     -1.535557773583676      0.324059882679350     -1.390168794663140
H       0.568123335827195     -0.998861235711061     -0.693895096570074
H       0.399354388647467      0.821735665094039     -0.396612366109821
H      -0.593745497724953     -0.477958168446065      0.609779145023381
Cl      1.484122283703570     -0.239479572595130      1.452991447280525
6

C       0.000631387209154     -0.040529026656642     -0.132443768879469
Cl      2.027734188622915      0.421205224247004      0.644124420923518
H       0.330445962071067     -1.086328954362656     -0.398304812302726
H      -0.233476632691278      0.171559704319066      0.870808267498973
H       0.117169050100344      0.699389911947819     -0.838564776220920
Cl     -2.034037011705749     -0.401349187237855     -0.588841715151943
6

C      -0.189621531329877      0.114882409690992     -0.047117205215912
Cl      1.592686928930178      1.412878061523486      0.077064755736941
H      -0.772316814321215      1.044906223946668     -0.388599249777542
H       0.468480228800757     -0.303099717803093     -0.758069615672085
H       0.058399375824536     -0.066190169414313      0.957901069089019
Cl     -1.521461402267931     -1.471012726974067     -0.055733227088709
6

C       0.056811781068049     -0.294183774461317      0.099842315580617
Cl      0.916517857739578     -0.050506122118989     -1.900379349798087
H       0.698738786208864     -1.113030170895698      0.374651447674637
H       0.508046641730502      0.653538812715738      0.161959583752633
H      -0.830020428753613     -0.434025915393605     -0.541902493868818
Cl     -0.946479646782933      0.175586706796480      1.866701712046407
6

C       0.022652867822416      0.119677298302605      0.059516340055623
Cl     -1.545997427847041      0.424005374266116     -1.366409368835463
H       0.506795439767274      1.056120849612881     -0.181860948971718
H      -0.645964031948822      0.189331749484523      0.886007299489762
H       0.117088704443404     -0.735389253310657     -0.476840735690160
Cl      1.538950119847769     -0.479057218623424      1.339781024120228
6

C       0.032389297125860     -0.018881169841336      0.025660839981072
Cl     -1.484321667031992      0.289752129026454     -1.380282525241725
H       0.480247450049490     -0.717876751034751     -0.678951570891755
H       0.215655645123320      1.023821812850500     -0.076183111637107
H      -0.643578021161730     -0.426670847853572      0.691524105700921
Cl      1.471859846936553     -0.279922134011215      1.373396971290518
6

C       0.058261024025114     -0.095869181100113     -0.014796439723852
Cl      0.357801978047974      1.913095369242612     -0.830850007627333
H       0.653717674736740      0.143931227426933      0.799882925348172
H      -0.996315226348756      0.129911867660056      0.006886874454437
H       0.503500611009585     -0.480041138120612     -0.907360630505707
Cl     -0.382116884774035     -1.874750309677850      0.838723508187925
6

C       0.064210451197184      0.098991654338562      0.075762133678253
Cl     -1.414868127402855      0.429449889901463     -1.436988463254096
H      -0.117083431855718     -0.914118791985388     -0.294537064302915
H       0.717497367247645      0.757288546637398     -0.453479922741437
H      -0.630841755398251      0.493829236329816      0.745125148361282
Cl      1.393977845688823     -0.472572139356174      1.411401326040632
6

C       0.018357348619858      0.071871915732189      0.094511264578259
Cl     -1.031533349554081      0.095184596738221     -1.811399035698301
H       0.501747997981141     -0.688844756109816     -0.486825948445528
H       0.102688925306197      1.113005422357375     -0.054557977881458
H      -0.956532268974158     -0.136338353930356      0.479389952925857
Cl      1.035325225271393     -0.127719955572516      1.781139941941973
6

C       0.085398299684826      0.042346734296387      0.064573081193487
Cl     -0.093886231640411     -1.165568760096519     -1.806107968593480
H      -0.334813305328993      0.724999974376942     -0.618012238728454
H      -0.637757479926137     -0.685485004565635      0.371605169329186
H       1.163634291244847      0.025748567297711     -0.019039655390841
Cl      0.059519207901261      1.149365310983953      1.791777447306430
6

C       0.054601050999210      0.055566061323489     -0.016289127476384
Cl     -1.526982149069738      0.529069183393844     -1.308788635467607
H      -0.362223078874351     -0.897584495539576      0.077462274197146
H       0.794511882917149      0.280673216273044     -0.780272636520948
H      -0.241015803629892      0.932255987983893      0.549244729327370
Cl      1.503043745459919     -0.556862453603841      1.318674188871810
6

C       0.152181279798782     -0.192053505400381     -0.013232961561783
Cl     -1.257815508487340      0.341085042510755     -1.751779525902819
H       0.263791094845246     -1.218647846983373     -0.297146861476890
H       0.735793366188318      0.566161867208876     -0.519301611766394
H      -0.730894035121665      0.281079340818280      0.396149924295614
Cl      1.198614117768471     -0.265453659000713      1.768213998079332
6

C      -0.002423430033573      0.149397502395814      0.085547025276838
Cl     -1.237569011008546      0.309541176983828     -1.608616371005525
H       0.172049881410132     -0.801426493123202     -0.410187770537419
H       0.622482021325624      0.985647505454907     -0.168357833674449
H      -0.841838059298652      0.288522224569135      0.701741703888700
Cl      1.239735228891448     -0.373601503755935      1.576128726743917
6

C       0.032389724436271     -0.057041342555152      0.103099017353117
Cl     -0.697537127623235     -0.615476547161478     -1.885629563449697
H      -0.580402907296161     -0.850141081079684      0.479195849153939
H       0.933251867293322     -0.460870057572336     -0.240803202812870
H      -0.417575074654266      0.834202594215270     -0.249900304959098
Cl      0.688403444784598      0.648360794784082      1.851025259428823
6

C       0.010294985580813      0.001923403497287      0.005200019660904
Cl     -1.292810574398658      0.327243966628103     -1.623014449008906
H       0.825119257813199      0.249339365332659     -0.709196184715040
H      -0.478602724540067      0.850106027255492      0.527433094177198
H      -0.242585228868236     -1.071205298543475      0.078587769450948
Cl      1.286367250656696     -0.328698635576004      1.624186333000665
6

C       0.053135844801176     -0.197302106720855      0.041842128666929
Cl     -1.657281532638933     -0.333860482376508     -1.134042006308349
H       0.036977890928853      0.810925837511689     -0.279772013141141
H      -0.462386871984862     -0.493281078078169      0.909644999491675
H       0.651956550510747     -0.919269632225650     -0.496178485949173
Cl      1.632836551484672      0.417816292689594      1.116063730883099
6

C      -0.070915922502323     -0.030024406220647     -0.057458697191549
Cl      0.272479329139941     -1.015976896085817      1.836242657117864
H       0.952444271312118      0.131877610983850     -0.127255591805564
H      -0.528078093230718     -0.965121416145067     -0.408378258852238
H      -0.695018685472760      0.662788747831399      0.463415283426528
Cl     -0.240756088727352      1.030996412049234     -1.814721282569522
6

C       0.140800335312989      0.015509796171500      0.120921413076800
Cl     -1.385333835556807     -1.231291544386863      0.945184332601002
H       0.552042898722078      0.290147803456449      1.063425166569360
H       0.645403534277165     -0.854204506222942     -0.392755450090931
H      -0.706854742448158      0.513373142713462     -0.306930277671370
Cl      1.323678849618304      1.227477746550974     -0.996497067348045
6

C      -0.002636596675529     -0.046335235433332      0.003670478799094
Cl      0.309265868634725      1.962563156169111     -0.700624560221357
H      -1.111713820416313      0.126092699374823     -0.065629096476044
H       0.548842016424061     -0.361766682110272     -0.844203729951204
H       0.548908495354681      0.181418470872529      0.922980335351809
Cl     -0.307975511010554     -1.945321348870195      0.699007104372228
6

C      -0.075790014847144      0.052294157195888      0.021108318000572
Cl      1.680466737771880      1.189730523439323      0.428273299595929
H      -0.238391217018460      0.583472660454134     -0.867632761768263
H       0.582241930504253     -0.766042951047382      0.090989085068699
H      -0.575207863689187      0.392500991984832      0.917977414011105
Cl     -1.648209421108007     -1.213417837094681     -0.439443861365035
6

C       0.067297769244306     -0.051957942505481     -0.048141377173394
Cl     -1.545622747940996      0.507867776599198     -1.313525093260481
H      -0.559486720792520     -0.985660597453816      0.171451988180110
H       0.723623252270301     -0.114954624567829     -0.912785980374210
H      -0.143522604149609      0.884415045727934      0.428673723706950
Cl      1.522235093635203     -0.484116108753298      1.338726436895570
6

C      -0.108593316538716      0.060189566338167      0.016192271834555
Cl      1.127016433044801     -0.508272679645344     -1.713158129539522
H       0.603104560210383      0.841886489050793      0.125148057148323
H      -0.930645053478443      0.137998035662065     -0.650034057814921
H       0.102622309399237     -0.952592605462556      0.315861468620966
Cl     -1.083827946323012      0.487103507969948      1.713615431409664
6

C       0.136914414590976     -0.100923474526965      0.077142223045684
Cl     -1.532597221874667      0.601499936319357     -1.598324383646798
H       0.729014337629820      0.483028316530479     -0.587283539572013
H      -0.708926601962361      0.450142676287768      0.509941055982026
H      -0.160815794703609     -1.057900211737021     -0.339276406206636
Cl      1.490210052618153     -0.563758923478346      1.584033737664058
6

C       0.112583442247242      0.095428698252420      0.037465816717784
Cl     -1.469261324032047     -1.319107014193662      0.889990177831223
H       0.315180559426494      0.189342772497909      1.114610966096365
H       0.367889974108678     -0.810042588786217     -0.472779992704133
H      -0.809488554827723      0.633436551368632     -0.132462355343961
Cl      1.434710961285404      1.286412155980088     -0.917167765746328
6

C      -0.126533312969173     -0.058782664536096      0.034600804718750
Cl      2.200795673941201      0.124848043041268      0.175608640206633
H       0.068727934802865      0.819881219947050     -0.606967977024055
H       0.222740396202312     -1.020975841366607     -0.192380449346089
H      -0.134460502947604      0.166105707555019      1.104605797682069
Cl     -2.162388685749704     -0.103936691590818     -0.196011734586293
6

C       0.178712269507585     -0.215615125282497      0.050595174334049
Cl     -1.582311282654899      0.371962675627159     -1.554731739064479
H      -0.552458073188134      0.404397173408725      0.519827996964622
H      -0.249700467306312     -1.128880163045210     -0.158602582503491
H       0.726999549316176      0.255246387235132     -0.731823823522603
Cl      1.523897945392633     -0.285566518645822      1.548127072136609
6

C       0.056512115501818      0.040599060294554     -0.277626200388241
Cl     -1.181337681555945     -1.640730246038160      0.786929227141187
H      -0.149109095800384     -0.495969991233849     -1.227664754079640
H      -0.787810874517703      0.541162769008508      0.186052183251263
H       0.693624305923990     -0.469207958737684      0.339427207051330
Cl      1.169108485799015      1.639031289457435     -0.672899011639075
6

C       0.054119911628064      0.195949746446743      0.111375085572817
Cl     -0.853430110858852     -2.099099197248762      0.254858103863754
H      -0.967141496145388      0.311467033629683     -0.014531867411861
H       0.419723386936468      0.027577311805317      1.121597478557717
H       0.471688226695491     -0.475219708471883     -0.555352676296494
Cl      0.837246795287882      2.036580505044782     -0.308281313769058
6

C      -0.053022344026203      0.046486870381145     -0.268241491521309
Cl      1.580612189429004      0.988787189639638      1.141747043057791
H      -0.393563420091652      0.982412319820099     -0.123317154609012
H       0.731137140559241     -0.093903179237770     -0.998720242417122
H       0.034566308983884     -0.559731687838251      0.662341717845322
Cl     -1.573228995510476     -1.013886243871312     -1.037791562119097
6

C      -0.000342352548742      0.197022773344315     -0.102024891770427
Cl     -1.340510399623355     -1.549330290450015      0.870464492111921
H       0.647457246153536     -0.448838971578738      0.502186724837486
H      -0.326600362229755     -0.363216271084511     -1.005247220347442
H      -0.697351158341050      0.813397090591735      0.435224939356218
Cl      1.351331788200937      1.482537818987353     -0.833968040330333
6

C      -0.164040335681889     -0.104480924239255     -0.209091187139137
Cl     -0.286124517431716      0.672882097075004      2.072198290926195
H       0.479847532212446     -0.712709771694719      0.383303363890136
H      -1.197644181275351     -0.349706724467538     -0.054189329667963
H       0.010286069477942      0.953097975685111     -0.182162584517044
Cl      0.361821531143903     -0.634373960271688     -2.005533490152544
6

C       0.106368631570774     -0.024774809781576      0.142631454241013
Cl     -1.601673920356490      0.607640899545373     -1.390473792670960
H       0.543158224135894      0.339650413878061     -0.733322631365169
H      -0.465761315945997      0.720430180132311      0.701625580886756
H      -0.467860024164210     -0.919026181909302     -0.016093357317501
Cl      1.576737197848900     -0.603257616248115      1.343506975581207
6

C       0.170913089269433      0.022616027686340     -0.104525869645343
Cl     -1.311079913707786     -1.526342085164316      0.831576351018398
H       0.735284123085677     -0.849432826471983     -0.246593225117024
H      -0.757088391593911      0.096517234125727     -0.695288630461434
H       0.011813644563105      0.423971164441014      0.874781921082331
Cl      1.253456033135720      1.528032772746514     -0.794253446807346
6

C       0.115086077599742     -0.162079019905036      0.067252360984341
Cl     -1.622600069830710      0.651253968730515     -1.365937555300164
H      -0.471343445298487      0.429174781674050      0.711690027209229
H      -0.220308164502185     -1.106452470994824     -0.273435293403963
H       0.567648784039463      0.469855837608620     -0.698486669614198
Cl      1.587133101433466     -0.590441208939140      1.350550973734954
6

C       0.059509101757683      0.070387297310688     -0.121405777930178
Cl     -1.430183928646059     -1.340928446857816      0.859085330432251
H       0.666545889590026     -0.867803725737517     -0.108850122320050
H      -0.720672873760350      0.081237676450954     -0.910010765114933
H      -0.327193893121958      0.655749700808599      0.659186368985061
Cl      1.420863974431640      1.320799844636824     -0.807724069125740
6

C      -0.242692289484623      0.046048323140809     -0.079550767873570
Cl      1.591728038917196      1.449987764721726      0.606855169903767
H      -0.840273931111227      0.939987887963511     -0.248151545695038
H       0.648571692502657     -0.113400069226131     -0.717969229187190
H      -0.032258728690607     -0.314938010584868      0.941909062187378
Cl     -1.503131995361841     -1.480138100853225     -0.579213712094855
6

C       0.113858875942427      0.116438208117145      0.253667532420536
Cl      1.089528282456783     -1.059288092397679     -1.629638772376097
H       0.291034365459922      0.936892130354821     -0.411117114466890
H      -0.456467148670313     -0.634643800958685     -0.118081311011480
H       0.994119667598213     -0.144718245746802      0.950102384005149
Cl     -1.151668630507785      1.015357778095478      1.531724190652582
6

C       0.099001999117874     -0.065678340538554      0.047904574791900
Cl     -1.635635054019147      1.305727675313335     -0.656017740682529
H       0.587728991539578      0.456867605767201     -0.818993196154295
H      -0.004433042921931      0.504493189013616      0.915962808008217
H      -0.685873487847118     -0.773859915652878     -0.143750948766368
Cl      1.605008400934182     -1.288806330826802      0.641117140958443
6

C       0.218317594201508     -0.100552516530925      0.083561477234113
Cl     -0.943595939625851      1.745072825157663     -0.927820489850518
H       1.047668014755459      0.596467602005916      0.134794765771147
H      -0.519862598107466      0.260911429657270      0.786676471318003
H      -0.166199674352058     -0.430082142249262     -0.893473002988699
Cl      0.859344565516110     -1.723154037808627      0.898712475096431
6

C      -0.072903564722395     -0.070237096715076     -0.177112039290208
Cl     -0.291385902204297      0.640652090299483      2.084418183800707
H       0.839079000073369     -0.336320447052259      0.368801329746560
H      -0.920425066789164     -0.700252099916554      0.049056932450114
H      -0.206086068009085      0.971137498005533     -0.199483861971189
Cl      0.324259704959829     -0.614994084714169     -2.030619275239744
6

C       0.054818704808113      0.097646756703810      0.184900934509102
Cl      0.200869785342675     -0.790349870310450     -2.043926336625859
H      -0.294262186294176      0.784095158573962     -0.509872962853720
H      -0.463956419853417     -0.798394243113393      0.211273292118008
H       1.149511640553385     -0.040436037434475      0.059940038480988
Cl     -0.230569385966987      0.758822022868429      1.988065230417774
6

C       0.001775523539209      0.163582033220862      0.003299301868864
Cl      0.812497907363394     -1.686635275872291      1.144894511890982
H       0.195407955698485     -0.525745647637436     -0.770761450738576
H      -0.683126822661080     -0.032024127290455      0.777813452127347
H       0.900735843692814      0.661727226476344      0.330335207178720
Cl     -0.824843377766072      1.628255221932179     -1.155605773413825
6

C      -0.151970270396347      0.017319785770923     -0.106923916861959
Cl      0.748594139718492     -1.591928316064440      1.305742499023978
H      -1.065353773308942     -0.549978706912384     -0.153055343442034
H       0.106606417889438      0.627829751746035      0.764038043000639
H       0.683908749594707     -0.364355194454959     -0.637528443217974
Cl     -0.689289422302352      1.594206686612353     -1.268760234565917
6

C       0.284597087482297      0.042802011281182     -0.130283301592883
Cl     -2.017091107838141      0.517906560693987     -0.905616923442437
H       0.415376854244286      1.089998166819825     -0.251328347419502
H      -0.497432976414117     -0.237170189764925      0.564120374940970
H       0.342699825810413     -0.646409368778791     -0.995242797846032
Cl      1.913254028260695     -0.538277926410245      0.969163978785687
6

C       0.115815890003503     -0.225551278878811      0.002535116969625
Cl      0.168283821930899      2.253350710694860     -0.195974931697961
H      -0.266163750964282      0.213655721984537      0.855537227081385
H      -0.438709179125183     -0.031510845663973     -0.877570828057770
H       1.164214634606921     -0.013282862596327     -0.225678997809595
Cl     -0.220585122156180     -2.181731994170804      0.202159558204428
6

C       0.137778243198625      0.028859992195819     -0.207631373335516
Cl     -1.334273822555843     -1.596610305959544      0.850212359359887
H      -0.015162428837868     -0.537848123602686     -1.124625545401940
H      -0.765003674897471      0.430262073205171      0.255661585911994
H       0.787892726875640     -0.424629195026341      0.468653845399132
Cl      1.287372753016086      1.601965329968678     -0.768481103502765
6

C      -0.001176806186436      0.085860767424307     -0.201079823695750
Cl     -0.941970694529786     -1.741895562695177      0.659047917696654
H       0.748400583023169     -0.630710300776201     -0.437704356916356
H      -0.817395098392851     -0.012677761182204     -0.911537941130334
H      -0.048922268819638      0.245569957238487      0.868157176237148
Cl      0.945722309129749      1.724116351750894     -0.577239636591045
6

C       0.186405121043848     -0.114911045382868     -0.021799543443549
Cl     -1.704075987666855      0.583740061274341     -1.245632505161353
H      -0.732003553019425     -0.522522349767172      0.419479248054742
H       0.520873527874542     -0.604903672854036     -0.914642461557904
H       0.231306512067079      1.003124960019093      0.022056642848128
Cl      1.640345386604082     -0.541272020732833      1.266471030958826
6

C      -0.021961305238420     -0.152357480873363      0.107848933689553
Cl     -1.486019883759099      1.176190197341796     -1.078656335270026
H       0.044197646658887      0.726927240138082      0.738872153216477
H      -0.850613586488208     -0.838991657070054      0.191453101805678
H       0.461470768022892     -0.062886701268965     -0.880600142382718
Cl      1.503269022557362     -1.119594529361095      1.040701569230933
6

C       0.128989220089451     -0.023561941153858     -0.178087292660734
Cl     -0.930107163082653      0.871535305354627      1.774816463164385
H       0.761025987099146      0.813189876434421      0.081075855370329
H      -0.064971418614221     -0.833258304954484      0.569178610351941
H      -0.899518440421360      0.169435963895225     -0.465006186648750
Cl      0.892189026564097     -0.867799339218067     -1.719745202040485
6

C      -0.239102314656265     -0.004996402814768     -0.005556381272143
Cl      1.581687851117223     -1.290916283417133      0.797557711597676
H      -0.804574640912094     -0.584990987938269      0.717569830381095
H       0.548794039201837      0.621598450312760      0.354405932643147
H      -0.040795964357187     -0.565176582404007     -0.882662663389240
Cl     -1.492243363672031      1.307638694339531     -0.801058132161089
6

C      -0.074652106482802     -0.060187165277526      0.146211678568264
Cl      1.270790253382273      0.755994888164338     -1.678609985228960
H      -0.792620856984087      0.229027583707449     -0.617157313932665
H       0.559272587314098     -0.812973632131389     -0.192854932816815
H       0.494093028578476      0.775115614120267      0.546474687862201
Cl     -1.252911107148577     -0.741038354456961      1.636564777558263
6

C       0.069283093567961     -0.159653182544858     -0.093203720054902
Cl     -1.014569334255299      1.145013699923467      1.576617405040153
H       0.869855629891774      0.400367459304675      0.323714554454185
H      -0.404315272838105     -0.878945995671131      0.495993912815351
H      -0.810548342542177      0.338664006365050     -0.516392751114225
Cl      1.000905266907694     -1.086942381960469     -1.553663169787839
6

C      -0.176524067813588     -0.073940138323053     -0.098302656541463
Cl      1.573726638375632      1.447650638087239      0.603503514027935
H      -0.576392753099014      0.865544627531321     -0.361059893080736
H       0.715876051874261     -0.349031039079122     -0.661745090349100
H      -0.061223859310857     -0.191496555989275      1.003616288540044
Cl     -1.516142856611765     -1.431840261989237     -0.569651457267170
6

C      -0.157350790013979      0.091273404187362      0.137581534797874
Cl      0.301169879993267      0.455957543365415     -2.115086293143079
H       0.686640196930242      0.756957388299881      0.053152981842885
H      -1.186218388992998      0.489664744750883      0.038793324580098
H       0.018097666464669     -0.883482784107457     -0.220364129517137
Cl     -0.234166418536006     -0.497208017876801      2.072123059044955
6

C      -0.223797972754525     -0.057794640600918      0.068224626930260
Cl      1.671701438432919      1.396489675997969      0.149486430499195
H       0.041219151200039     -0.002388378089364      1.050990983663638
H      -0.661544421287729      0.808771232706363     -0.315683372246966
H       0.475598171552690     -0.460605557239674     -0.605563185194498
Cl     -1.591760045877834     -1.386739946449310     -0.176291180166118
6

C       0.013654183090736      0.164297148038827     -0.081945814551773
Cl     -1.158645354330488     -1.651181798717303      0.754067427607112
H      -0.259017741954338     -0.427582081633318     -0.977361791115300
H      -0.784578604850680      0.777609199177363      0.347185289195238
H       0.646682594173015     -0.335017914348782      0.615972730958717
Cl      1.165305119338953      1.595088644361425     -0.725899061465810
6

C       0.032311392914551      0.035388120781121      0.214663335849366
Cl     -1.558874339547401      0.252871237771899     -1.507130430725397
H      -0.439294477704948      0.935925058778963      0.571142270863703
H      -0.504845487802925     -0.869241607783167      0.120799292938329
H       0.547708708181531      0.242037269950373     -0.697138409349961
Cl      1.559199038195857     -0.273639565146127      1.434546991893981
6

C       0.192468686211370      0.030830316886068      0.082463501271675
Cl     -1.763743679358086      0.683425764982516     -1.017979455007918
H      -0.634716160773650     -0.325375296813434      0.585390961175676
H       0.308294903932691     -0.320232877824878     -0.911637914590983
H       0.288101866645789      1.083352856234356      0.220854479030933
Cl      1.699621946078281     -0.706318559768619      0.993036337953029
6

C      -0.207528148615296      0.115335478611897      0.076486302005591
Cl      1.838315350281476     -0.510076881439360      0.986439926079555
H      -0.613269303104104     -0.081061473804198      1.051798573169492
H       0.363789532983503      1.020807931557655     -0.001418688656017
H       0.181490734010524     -0.765101593612357     -0.481230165987441
Cl     -1.766068423866344      0.466033539925647     -1.028538089398680
6

C       0.178335628781483     -0.240178424886167      0.060089296751684
Cl     -1.246114709221388      0.353020276037498     -1.730858835850910
H       0.424895193472551     -1.144166666049301     -0.484579817545779
H       0.492591657867209      0.707836903309968     -0.356047711550985
H      -0.778771079918883     -0.068476589858832      0.443565396323777
Cl      1.181747579887443     -0.257290293957766      1.721789896120285
6

C       0.072705129862356      0.108646650843383     -0.151503232522103
Cl     -1.066160696340063     -1.871109062282343     -0.198502029235669
H       0.357325135951513     -0.005180483631989     -1.183901113475940
H      -0.891473871722368      0.428888281698974     -0.049570996084498
H       0.675367822076112     -0.475264404905005      0.502966779456784
Cl      1.037511608786488      1.835763903930101      0.270605123694523
6

C      -0.108803211542636     -0.168978492937711     -0.025799626697449
Cl      0.152392634396023      2.239347408264251      0.210592793484736
H      -0.943351612577942      0.097521018347379      0.551472763204771
H      -0.024060945542018      0.098302327367691     -1.067632829798995
H       0.799847087709949      0.004777820967348      0.460660885039189
Cl     -0.110763822886511     -2.187798897610975     -0.200273400219004
6

C      -0.170867841330221     -0.067156657256845      0.111668923219710
Cl      1.614634696853443      1.394400533526664      0.166079199502889
H      -0.418435826033303      0.640211077073488     -0.686837794704402
H       0.719520234221818     -0.708136224356849      0.076325344500589
H      -0.344896829171063      0.351603306068498      1.058375609781976
Cl     -1.555496288882537     -1.379713057468678     -0.216649058505595
6

C       0.111724875396504     -0.221589892392174      0.000254949825987
Cl      0.168302826161920      2.249178918796858     -0.194935834560681
H      -0.235806134683358      0.289670025627402      0.921265696889634
H      -0.532402895347147     -0.000128251528409     -0.853986838851753
H       1.141701836644557     -0.091488985823261     -0.217387242379658
Cl     -0.216776965159269     -2.179732402945220      0.199117697721647
6

C       0.130688604140289     -0.218947815016520      0.105781965346097
Cl     -1.623808555891941      0.460378751447308     -1.494736742418624
H       0.656447768711288     -0.109259209017594     -0.795536208412543
H      -0.452552936751573      0.640467131813011      0.457354682974696
H      -0.424637861729536     -1.148064193907359      0.279245744996231
Cl      1.585805964909653     -0.368655949544788      1.460572005631960
6

C       0.178973185135490     -0.186091474585794     -0.006430524946055
Cl     -1.814490804271898      0.709097449282254     -1.125388300116796
H       0.031829248122762      0.845870646294586      0.221003843572234
H      -0.655823871440461     -0.783464055332459      0.302934035750965
H       0.579619556836178     -0.498862853734238     -0.951836005088353
Cl      1.755113741940463     -0.633636444652495      1.139734092666799
6

C      -0.188868346839371      0.128916872193670     -0.084551602988313
Cl      1.126916529113089     -0.546732489123244      1.884965428941172
H       0.196643807265914      1.095866455290974      0.246093698039161
H       0.599996934862929     -0.536286508956294     -0.428598755534694
H      -0.946001195264259     -0.340119307026526      0.482546244507205
Cl     -1.058678079165347      0.496813254247613     -1.864849553426836
6

C      -0.355495723797446      0.007285867011433     -0.098024081052586
Cl      0.628263933419163     -0.009221727019806      2.164277519985262
H      -0.774268685926430      0.968043021069533      0.181773830249995
H       0.673520496191699     -0.112880695642062     -0.044397805533350
H      -0.955081137515691     -0.776698174635087      0.299530535679239
Cl     -0.477794678118769      0.004522082092492     -2.143488650460739
6

C       0.119057686201614      0.277654346753195      0.167164348321535
Cl     -1.588484258979861      0.423946119627090     -1.406435328156306
H       0.209373952385462      1.422659508411584      0.307027822114051
H      -0.819495989004437     -0.092621313223091      0.578392561233457
H       0.555805051169870     -0.027860357344338     -0.731445097246095
Cl      1.549690173009864     -0.555046306352068      1.345419303443208
6

C      -0.070513939485295     -0.039033522231790     -0.225137736665729
Cl      1.323137901964770      1.538759744496488      0.831596298746121
H      -0.321420735609465      0.018088309012143      0.835660873584459
H      -0.363510236610637      0.727117892477423     -0.988102545946333
H       0.904591269553279     -0.498880953977675     -0.282653742537164
Cl     -1.305492617128479     -1.532538706808651     -0.742944520655541
6

C      -0.021922785455530     -0.074508557303773      0.247937386239897
Cl     -1.641079035144514      0.655868485519235     -1.313786768741963
H      -0.771747726385513     -0.406934962710324      0.967717887058100
H       0.125054959135099     -0.633447606516583     -0.654579851978554
H      -0.002849012544985      0.953878019240719      0.117390135366819
Cl      1.666976149111775     -0.628164145091603      1.217539988997615
6

C       0.202910882877205      0.185691992979642     -0.040660756028828
Cl     -1.537935413234180     -1.295286701319540      0.920651961287533
H      -0.687964726817128      0.264479247535348     -0.650562429290218
H       0.181991029726689      0.648538855773182      0.973840037782708
H       0.391798792661859     -0.835910522798912     -0.052939550007736
Cl      1.472432611807534      1.230178916585174     -0.914562382226592
6

C       0.114110937712553     -0.027561777234268      0.380864097814552
Cl     -1.796406129256823      0.606696396005773     -1.333140644709914
H      -0.628905331353337      0.152114587714280      1.166771467404772
H      -0.271327781760988     -0.790358573034965     -0.248341607289262
H       0.315132470362883      0.891370369736563     -0.205362402188797
Cl      1.774380599638405     -0.604555546615927      1.183822430987973
6

C      -0.073810042755511      0.141690523324939      0.244399708429299
Cl      0.245287893992170     -0.911657034560392     -2.118412561448480
H       0.787580579799950      0.579527747563134     -0.158802193886757
H      -0.939939537538081      0.407591560425558     -0.317331008079364
H       0.030063813302405     -0.915709386911914      0.251698648656017
Cl     -0.216802536329908      0.861619627618197      2.041987882514562
6

C       0.027028118263885      0.237326329763675     -0.143545178033975
Cl     -0.010677825013474     -1.723877056363236      1.514423223144803
H       0.226200698048586      0.688604890909104      0.830989563424566
H       0.832501814167841     -0.468809613626775     -0.391522873446831
H      -0.992129889298212     -0.172318714736264     -0.118851711211349
Cl     -0.000372666731792      1.642117312446757     -1.474904429498281
6

C      -0.075459047292270      0.173745038490694      0.412869910093832
Cl      1.333323439559877      0.722152014311035     -1.648452336293516
H       0.507714432699203     -0.610792531136241     -0.034416258786706
H       0.476471615902895      0.839143894541252      1.044730204180269
H      -0.734508322504013      0.602810222645203     -0.290965717665813
Cl     -1.314856204887917     -0.804653073155890      1.488111475822777
6

C       0.013520172973088      0.178652975762333     -0.246364820309111
Cl     -0.090761086710188     -1.613347781724912      1.631668878684323
H      -0.578343323518865     -0.666262635332288     -0.604607096916027
H      -0.466643277243520      0.571648960451753      0.593599354846305
H       0.978681414395879     -0.160903052620824     -0.048619191751257
Cl      0.088065595321709      1.560082900750047     -1.546501267795094
6

C      -0.041149863785819      0.108503673858877      0.275846195610171
Cl     -0.490176350564113     -1.808039698056405     -1.329448408821975
H      -0.117485567805502      0.338817502601302     -0.793018121231142
H      -0.957700646810267     -0.206395661166724      0.760033167440412
H       0.820360843121122     -0.490876466889773      0.545518159632422
Cl      0.511364361520336      1.781469448006760      1.221413934154469
6

C      -0.312865494929170     -0.011059263260876      0.103080073793919
Cl      1.781651621989425      1.261641114445382      0.452483059741496
H      -0.811698980285470      0.500347178957583      0.900067453719060
H      -0.278194713521899      0.762329221310779     -0.637689532430329
H       0.512899602393531     -0.610637350142142      0.336751890821901
Cl     -1.659241537257742     -1.276434416321251     -0.504444064450794
6

C       0.047996125856670     -0.238691903048547     -0.319821022768210
Cl     -0.388368360078999     -0.181451607662197      2.255335563501887
H      -0.079740627842639     -1.312827299188882     -0.405515049140831
H      -0.804747018634842      0.348397360434660     -0.057304673088098
H       0.844473749375609      0.097445998086556      0.378192806289732
Cl      0.373244313269794      0.286976241222405     -2.144569012423290
6

C       0.170820587021936     -0.010509698331020      0.151223008509490
Cl     -1.644942312455797      0.367139718897548     -1.463577112373301
H      -0.692525286868516     -0.549948785584036      0.555849307974029
H       0.477253669718280     -0.384508584843161     -0.774595458398551
H      -0.113490733005889      0.996885827788759      0.093538280675631
Cl      1.596413860501926     -0.365353989655446      1.415900666040400
6

C      -0.099622361508921      0.240396526137133     -0.195854091309684
Cl      0.052472207136177     -1.743781719616507      1.416888637667910
H       0.832096264061889     -0.307266369613373     -0.240975261392009
H      -0.839614455994479     -0.500118545094651     -0.561198121085255
H      -0.482234914962561      0.614676331138170      0.752147988260390
Cl     -0.004792790610537      1.667811270443138     -1.349107845338125
6

C      -0.260859572862572     -0.134015838245972     -0.240886384068261
Cl      2.326023223967269     -0.137173677258971      0.222724125413549
H      -0.001225644409359     -0.409915355366550     -1.239876615349715
H      -0.104707041428824     -0.851588834907716      0.533905608390825
H       0.285049743943105      0.816725551888865      0.050626227301208
Cl     -2.242733115784389      0.195227304922312     -0.122473803920201
6

C       0.129780997604314      0.106085162223437      0.279155312120565
Cl     -1.693979190852417      0.427072004744204     -1.447308427966007
H      -0.683439068556083      0.249134135053268      1.023794603907405
H      -0.097724407382998     -0.698341281253832     -0.339524902859537
H       0.452963046345118      1.015274223330849     -0.226849017602945
Cl      1.659339599055642     -0.479111059672690      1.339719866533230
6

C       0.184245025290082      0.028194318966413      0.227333092172572
Cl     -1.646784467103814      0.473941190817186     -1.448686739566952
H       0.508378962222380      0.842006856736106     -0.483502338011760
H      -0.652281401473132      0.345687427498873      0.882980205715896
H       0.055047857079245     -0.887901895943713     -0.271033955823015
Cl      1.586885974016894     -0.492018276642384      1.368010597584956
6

C       0.011660587594477     -0.493250369065294     -0.097806436661429
Cl      1.632421195348414      1.492609267226797      0.630763656304495
H      -0.073058279872825     -0.081851927665653      0.901395552063576
H       0.226409051726890      0.286988787210461     -0.775781701136836
H       0.699430838665208     -1.304948431075758     -0.200620590618456
Cl     -1.660620325983118     -1.294216030359465     -0.595492572966009
6

C       0.053826200582805      0.127404158536834     -0.304727246150378
Cl     -0.428517394778027     -0.154487458248738      2.261492069780815
H      -0.076241338228613     -0.875549185770879      0.107979665523501
H      -0.834027799501314      0.730831137764426     -0.075302101822942
H       1.010160528497906      0.603684152009876      0.048728890283130
Cl      0.407439904874110      0.098270556104268     -2.160560581828875
6

C      -0.080539180857627     -0.026422349861789      0.323532718054622
Cl      0.588085982389131      1.660558705095326     -1.387275231547747
H      -0.168924826064753     -0.288800703998589     -0.730471572084156
H       0.949169877968515      0.157039679788241      0.611222026917190
H      -0.827706348598980      0.718447258597365      0.656689701217161
Cl     -0.559448546892668     -1.668288490146736      1.262375622130179
6

C      -0.100908121276404      0.207355336907156     -0.151959027948479
Cl      0.287945538479235     -1.984735216368051      0.980642020743844
H      -0.951485281584638     -0.315144973958013     -0.523649099286530
H      -0.276651498653052      0.356563330043599      0.897298320991638
H       0.868927618275251     -0.184105370587758     -0.343028616609857
Cl     -0.243542427621421      1.918537291375827     -0.930026666307924
6

C       0.169250259740224      0.133596557548472      0.252731698945496
Cl     -1.172694754404390      0.043764442701686     -1.941082380770396
H       0.786388308297219      0.037677075830231     -0.646920508327668
H      -0.216877817239080      1.138267304353022      0.270228822510504
H      -0.637952509210649     -0.507118207391372      0.218580390702641
Cl      1.117296296987121     -0.108046672176698      1.859948833504973
6

C       0.138075509624187      0.118475147391536     -0.401668565733289
Cl     -1.606981490848455     -1.300728904040184      0.956833510864172
H      -0.406708950465600     -0.197057550735323     -1.291655101147455
H      -0.409552395943464      0.542646899711585      0.380025407789020
H       0.562991230371196     -0.869622088737941     -0.075536209841786
Cl      1.567400992424453      1.275488283627169     -0.792672597649855
6

C      -0.187203569604776      0.143980526815028      0.202234178386036
Cl      1.905222858975392     -0.839105721247719     -0.867159363676308
H      -0.163884630337307      0.340231041079733     -0.814609007288098
H      -0.141728123222521     -0.892964965273947      0.416847385079564
H       0.470604171230789      0.813245983635298      0.763653226000073
Cl     -1.846486872360131      0.782915417623130      0.788235429876082
6

C       0.223536912860283      0.070668125251999      0.150318338681373
Cl     -1.164762150398204      0.093032701262302     -1.913752041343400
H      -0.562631286135513     -0.698390421020235      0.233254032822103
H       0.948832356142916     -0.101406397662331     -0.659373902051954
H      -0.151338918203237      1.120258392510635      0.114839767665387
Cl      1.082346271431092     -0.126088275841155      1.871672965926621
6

C      -0.290005391869670     -0.345062026144859      0.096982838872449
Cl      1.767346687738367      0.856356436666402      1.042236826422894
H      -0.202282489473262      0.732724175452546      0.212941706312847
H       0.623461957935248     -0.810427460789185     -0.293796024124703
H      -0.572037425129636     -0.895218936968831      0.927674686210779
Cl     -1.664798885705466     -0.711779692065264     -1.099174931050314
6

C       0.186199686824210     -0.101303701841672      0.221481721417248
Cl     -1.496619856149110      0.392843365669222     -1.711169697840418
H      -0.701716849125802      0.343214221802171      0.650418989875490
H      -0.037578178377601     -1.041315716422162     -0.172191457113669
H       0.803822320660188      0.591067610624918     -0.446949697364644
Cl      1.431697770113900     -0.355476682513043      1.635238949913102
6

C      -0.185121492857391     -0.124398644744829      0.227794479077460
Cl      2.051271153221620      0.801395666524073     -0.256667634417781
H       0.450789362257282     -0.995747394587696      0.461113683207088
H      -0.116859338241198      0.636428135708755      0.951389335550303
H      -0.050878833274780      0.316428226333585     -0.794266316477106
Cl     -1.996597566467202     -0.758027929349595      0.161908196220324
6

C       0.198614329306679     -0.282638020789520      0.176840619845606
Cl     -1.636755791311217      0.487387097543206     -1.529684261474372
H       0.693711001175870      0.150421096236101     -0.677229569161298
H      -0.633383860719917      0.195833468158611      0.650583874915995
H       0.052522469032425     -1.367894064388665     -0.035136938058102
Cl      1.566253418513824     -0.362575309568712      1.471524718692848
6

C       0.312947833458523     -0.016667072702802      0.026847338023813
Cl     -1.746106108459855      0.489132001645061     -1.394769125288931
H      -0.362910823710010      0.672659826418879      0.459388332828098
H      -0.250094880445900     -0.946363850907787     -0.143912750644361
H       0.937348379232674      0.314384670591565     -0.788194215759262
Cl      1.630852121318881     -0.484641673888760      1.399114315857048
6

C       0.325736775232627     -0.349470776658194     -0.067105549142013
Cl     -0.668238527140218      1.810825747493453     -1.278322121215353
H       1.158700526481269     -0.225457988998386     -0.687416012924515
H       0.093268873750304      0.528098087433804      0.501425031687191
H      -0.582531157210440     -0.648461493290867     -0.575736062572844
Cl      0.538838861236556     -1.682586496027838      1.322717766092808
6

C      -0.210335599039979      0.242177629414343      0.036354567478824
Cl      1.092142701119542     -2.038427129300530      0.217398727226026
H       0.883305340574665      0.375083883094703     -0.192307715388054
H      -0.644487366520977     -0.425463709543877     -0.669193062004780
H      -0.362258482479248      0.038824077652350      1.023732546465780
Cl     -1.017367837577609      1.956702240383507     -0.234329173861099
6

C       0.410287290643680     -0.103214201857583     -0.070371512862224
Cl     -1.913985022748065      0.685027367805020     -1.163060827869927
H       0.926643090928280     -0.179654356570282     -1.028684369520889
H       0.057477827134036      0.880916218560728      0.121193401976285
H      -0.372983654058672     -0.834867800409810     -0.019378025746306
Cl      1.757596108501602     -0.646257817327196      1.213258745676001
6

C      -0.058213402870507      0.182349345866058      0.590420703691180
Cl     -1.525962751681547      0.441803173428184     -1.584531554898220
H       0.191095251555197      1.044925697785274     -0.029765740923381
H      -0.699033043214669      0.443527453554466      1.435664709217647
H      -0.516930557295566     -0.595229579987617      0.060181428269047
Cl      1.574827870937526     -0.528984198904055      1.342800888839832
6

C      -0.204733533150730     -0.045957059643754     -0.265939291776689
Cl      1.385844671421694     -0.993922593144603      1.473043871266910
H      -0.360282470254333     -1.087077739433809     -0.434992446929229
H      -0.474989783548736      0.245180922488686      0.762907612060687
H       0.747445226448036      0.339141376692496     -0.549344699984402
Cl     -1.313980521626235      1.023789101668072     -1.376643369019789
6

C      -0.164678251925096     -0.029686947344729     -0.256371992085576
Cl      1.388190800812069     -0.999665253366359      1.466882873001794
H      -0.272042042196503     -1.057663777847679     -0.556618582373915
H      -0.398101322896380      0.137887762602915      0.794914600752762
H       0.844518646379512      0.281137781559536     -0.512497490781669
Cl     -1.337353559617839      1.027882947699581     -1.372223378470835
6

C       0.034622329013771      0.350349278045130      0.203530295292708
Cl     -0.887342197846920     -2.054047518356228      0.155341005961645
H       0.469754749437541     -0.056554985438893      1.081225120214597
H       0.371146071864572     -0.330552601931885     -0.608671555876384
H      -1.053465271696112      0.478171760441640      0.347597051726268
Cl      0.881655771110999      1.932754489722768     -0.247620673035087
6

C       0.207781627617095      0.017230860775584      0.240062366059519
Cl     -1.784267739744564      0.441036780565852     -1.533094848845423
H      -0.267838520613864      0.745180821281892      0.864854020059809
H      -0.475039001160013     -0.810655889580303      0.109167729733215
H       0.621140239286177      0.263850437855609     -0.716329765693644
Cl      1.717329687598948     -0.452515546187541      1.444430741688464
6

C      -0.185731998338269      0.129121218856724      0.249701939657427
Cl      1.200884801700269      0.945442290865614     -1.625638536094812
H       0.293019136566002      0.864115616543572      0.849706488941052
H      -0.924056385300418      0.499798594425457     -0.466996963756543
H       0.488674695629953     -0.602135435758186     -0.172864785904920
Cl     -1.133907975591114     -1.010851260261958      1.535068902965918
6

C      -0.228694779507506     -0.045799804868551     -0.159576595330819
Cl      1.789935122720649      1.256705982941028      0.450866755248612
H       0.011874558036126     -0.367058827755784      0.825241994170653
H      -0.630328213615485      0.938277174831697     -0.130364111630072
H       0.510456413844551     -0.194661587014181     -0.947834956366265
Cl     -1.709379009424950     -1.251895482457684     -0.389607087634133
6

C      -0.278093516838197     -0.162852040055327     -0.014918463211387
Cl      1.624113376944152      1.453362406877631      0.607988137269786
H      -0.795365644415313      0.561564048068959      0.635826993560755
H       0.191181465488384      0.217679671271696     -0.924617963139525
H       0.373259120243006     -0.767446835873272      0.612953575846362
Cl     -1.523324838442178     -1.398521092503344     -0.612150908651628
6

C       0.216102267145871     -0.181927827785969      0.076412531279900
Cl     -1.487511270019723      0.454178576762544     -1.622721219871437
H      -0.559372476002409      0.341979676324456      0.519377360665430
H       0.000289107654183     -1.185999302635992     -0.185447692394391
H       0.725074388427146      0.377623209763712     -0.670407754995850
Cl      1.409572672588737     -0.379276948344526      1.606399047747800
6

C       0.304984438576270      0.077122979147461     -0.053251441071794
Cl     -1.781359082339392     -0.334576346978224     -1.266653034456183
H       0.071174219863352      1.068293132333864     -0.422790503964151
H      -0.484892295858103     -0.423042055431253      0.485889949457118
H       0.695134940757043     -0.495201430585581     -0.879098094433374
Cl      1.670023784979165      0.304179332985939      1.307897877808671
6

C      -0.246373440283037      0.124251382715727      0.127652361785962
Cl      1.986066720965695     -1.097455249344435     -0.436228821163851
H      -0.507318374132382     -0.859866901715733     -0.014940653768832
H       0.319264345432970      0.195849430456235      1.029123726565103
H       0.292287417398839      0.467218045465430     -0.735373473139887
Cl     -1.905555461856281      1.060952864673112      0.385050468727584
6

C      -0.276165811700338     -0.025911273789916     -0.073985240410110
Cl      1.825932585023793      0.879450010879438      1.092280677541893
H      -0.810797335743388      0.811251749760260      0.322179770976106
H       0.545309039915068      0.126393556741988     -0.708188279511049
H      -0.139380970809739     -0.659927808101870      0.711787378801205
Cl     -1.720851180648523     -0.878567611130407     -1.076476682581770
6

C       0.256346256609618     -0.306991754304491     -0.114754518338827
Cl      0.070972338756349      2.083995244640761      0.920255126077038
H       0.410102254736060     -0.617070103587892      0.932168282876333
H      -0.496522106533803      0.342844754576419     -0.337777035746285
H       1.131983186821657      0.037063665503894     -0.625792262940095
Cl     -0.187556336777249     -1.973238208309937     -0.880481677735574
6

C       0.108646153527260      0.064643770803769      0.258151685740557
Cl     -1.475119034217755      0.650133909076288     -1.506585927773756
H      -0.576853215318181     -0.722299966419996      0.037122350760271
H       0.617794526692876      0.540988627438793     -0.552715478308528
H      -0.374511423052425      0.789594967466584      0.821186534809399
Cl      1.447792933302537     -0.689332392253618      1.410430834629878
6

C       0.235915925822525      0.078007115528180      0.179737678662264
Cl     -1.625442332451314      0.456991558357586     -1.527890963571792
H       0.173554876934858     -0.833135688471017     -0.440119535193134
H       0.641785103777565      0.947996308316760     -0.335902377508091
H      -0.665069286876104      0.157598678641918      0.752630691701668
Cl      1.541237563919807     -0.491168778032744      1.467658215824386
6

C       0.235047048172518     -0.191913786578098      0.069161615301937
Cl     -0.627870549346056      2.035195824639317     -0.920313834656341
H       1.200875930793273      0.229849527217752     -0.112376092453943
H      -0.297640074698819      0.380696870096500      0.897200070365756
H      -0.372710549889959     -0.297888575904068     -0.789576476723639
Cl      0.533147852470023     -1.979062752520605      0.897015960394270
6

C       0.025389391789133      0.315554979131150     -0.029410828628201
Cl     -0.725989129086742     -2.100450485655813     -0.380322617661193
H      -0.060704798408210     -0.191889296092626      0.891608193702453
H       0.743445769468863     -0.210806858494848     -0.636159926939044
H      -0.858458029727643      0.382310599380233     -0.654155805121562
Cl      0.722383228109493      1.994115303294848      0.401624469884538
6

C      -0.206412456706389     -0.034184815402753     -0.219253055900268
Cl      1.710691192511547      0.928546280931286      1.263282765167872
H      -0.002502205138299      0.876001299362315     -0.738933525103064
H       0.611142342560967     -0.708583332298275     -0.285937868886023
H      -0.433687588272633      0.180482600259865      0.760462460224161
Cl     -1.645730181285700     -0.926856293739760     -1.181478176743283
6

C      -0.072571021390814      0.223797964781554      0.381233391226814
Cl      1.718696661047773     -0.195020387458172     -1.422789633741559
H       0.738655439984726      0.186637312391042      1.191165733731012
H      -0.078253091218855      1.056509774954620     -0.239910918017728
H      -0.036135657396514     -0.697882500570955     -0.121133497966355
Cl     -1.711859151512513      0.103689948573503      1.270017939797540
6

C      -0.288372742501224     -0.055711639889722      0.132091101621427
Cl      1.843029741474467     -0.764405253047059     -0.929287883898510
H       0.647556696984566      0.387734903878268      0.555150343643049
H      -0.387632082928789      0.065275202550140     -0.957682215528081
H      -0.383038356900101     -1.070998550520031      0.422865680372936
Cl     -1.741823996397756      0.800853344961254      0.883955226619776
6

C       0.144901762760782      0.253578177329544     -0.315610055051323
Cl     -1.606424611232796     -1.334866027694957      0.968895962646542
H      -0.366511147800097     -0.194238399913971     -1.165945107605538
H      -0.446487000346380      0.811137113018958      0.343596568767566
H       0.615120081542315     -0.626792595054809      0.216129751006292
Cl      1.562956233760758      1.249231205271855     -0.844724992001829
6

C       0.519370997136193      0.022390350390978     -0.393140357554344
Cl     -0.275377877950874      0.529118172963507      2.164776034891631
H       1.488250674159985      0.477222136020842     -0.399430681882350
H       0.506390387676277     -0.873271078289065      0.206798042168671
H      -0.214164270147961      0.709575501802320      0.023937905675083
Cl      0.048780257284491     -0.545619308945319     -2.026777357134378
6

C       0.412510017961864     -0.119526880061642      0.317195621298325
Cl     -1.765923217699111      1.527272287033824     -0.231352268186725
H      -0.633361561586611     -0.531044002300334      0.300126062842779
H       0.516856888827832      0.592595223809610     -0.486541386742033
H       0.715468718334819      0.361572570346382      1.243379603614457
Cl      1.609127347919696     -1.498806036702945      0.093827399318812
6

C       0.289485003682415     -0.112003542689664      0.204845055080881
Cl     -1.904030037952623      0.722135876873537     -1.142716299258595
H      -0.464998416730268     -0.868716644964891      0.216138728613913
H       0.530323727444355      0.111485332078175     -0.813144553957628
H      -0.074636160398740      0.779504022242975      0.683457937744791
Cl      1.806212857621233     -0.684820681945041      1.070853459036400
6

C       0.216715833437362     -0.158533215005306     -0.405952998816645
Cl      0.438006098137720      0.284962633996159      2.301736333783197
H       0.065435977717073     -1.165760839316917     -0.013266384374361
H      -0.437519055771318      0.433836749564080      0.211351596622166
H       1.206954606667097      0.257045260063876     -0.428209307145650
Cl     -0.535171806917901     -0.217746264299265     -2.157649830075371
6

C      -0.420310377933760     -0.540358857202207     -0.053157386405815
Cl     -0.500618709684616      2.180917855910380      0.319223413992546
H      -0.364577334121194     -0.039590985369500      0.869655229190798
H      -1.452368269796935     -0.880117327303907     -0.241503260625535
H      -0.141233478347914      0.229844317631162     -0.745750142858583
Cl      0.698705944220180     -1.978220165054040     -0.297869046494455
6

C       0.233882213786373      0.038977666828643      0.292136985389959
Cl     -1.744286600781251      0.429702165170042     -1.498653639670735
H      -0.421307946682290      0.760758125380832      0.709804048954183
H      -0.441490444795235     -0.763325237525891      0.145821886071602
H       0.670174411321184      0.259231824577910     -0.673424912206670
Cl      1.670520894214533     -0.450206503291639      1.394492399543225
6

C       0.238359755865346      0.220436181007102      0.273732278061928
Cl     -1.212648371195598      0.034571104063943     -1.998017197136164
H       0.735101805369709     -0.084653351344514     -0.616445561760173
H       0.159681474793643      1.310609396036924      0.253730163597879
H      -0.682189066529176     -0.243773911638257      0.227190528603728
Cl      1.125843463013865     -0.137186014083554      1.909126101980021
6

C       0.133745079508344      0.292871239128459     -0.202593622163619
Cl     -1.527944998327158     -1.480542382753725      0.942129429848052
H       0.338618979079143     -0.737271330701788     -0.272842605617683
H      -0.755320645108128      0.545458702125103     -0.717362413741512
H       0.140958479964652      0.371195037126284      0.876537803497257
Cl      1.490470724182657      1.376212511921906     -0.870255563856617
6

C      -0.366269520361371     -0.209761435866980     -0.235356170866666
Cl      2.305031332600251      0.174692781188483      0.163329020201886
H       0.040102782131584      0.627298024021059     -0.737952265899438
H      -0.206087205963527     -1.198891697727291     -0.703777049479712
H       0.032792752009243     -0.249926627110113      0.800411259217356
Cl     -2.177146412593004     -0.080262962587042     -0.065351260853760
6

C       0.362222571376691     -0.229265823324326     -0.333093292913389
Cl     -0.952978174308271      2.131483246999466      0.151858120038881
H      -0.706326659444059     -0.112499792278314     -0.143908194358261
H       0.559640249973583     -0.053301943437191     -1.362808674352607
H       0.897740645512428      0.340067701133094      0.330814573531342
Cl      0.808895861903821     -2.058759644437956     -0.005564945011400
6

C       0.369904351659002     -0.261450307396814      0.130991920602241
Cl     -0.896812267722879      1.748801755672474     -1.313386138494906
H       1.172587909941413     -0.254253201136507     -0.603612830776243
H       0.355298163248065      0.632617341029572      0.741903335021547
H      -0.559513948115608     -0.440039201964538     -0.377332060460390
Cl      0.743947944172774     -1.658464714636878      1.275801087163742
6

C      -0.337484162631114     -0.500854886281218     -0.193457366128513
Cl     -0.476345924385029      2.241878429454616      0.098296579653635
H      -0.237453150457327      0.051487177159231      0.778699460376288
H      -1.337483854018302     -0.675661547104227     -0.481593124371770
H       0.154487551234709      0.013466966771517     -0.990844741969951
Cl      0.631080348256077     -2.054816057056257     -0.013024231620264
6

C       0.197218174521936     -0.085111231141227      0.268507342979248
Cl     -1.206376633197124      0.057069675548533     -1.997013686392606
H       1.027526441852572     -0.421703962511998     -0.334038784378976
H      -0.126312711918416      0.921129507706311     -0.033877188696749
H      -0.664853022342498     -0.817799600518015      0.423070431183390
Cl      1.132835333128398     -0.019179914053353      1.904471023760806
6

C      -0.512484592818737     -0.190039809168312      0.023013476490888
Cl      1.472331322186463      1.563787008382022      0.973436132105491
H      -0.080360729130604      0.636352897586448     -0.603789671879085
H       0.365164106895975     -0.574061080282632      0.494004022769346
H      -1.378978507319317      0.136647210033772      0.643899736377364
Cl     -1.267581506250309     -1.505055341009268     -0.996420669936185
6

C       0.332625390326086     -0.122346084300872      0.120805149011744
Cl     -1.809779046248622      0.612520017632193     -1.320258291621926
H      -0.279891993728100     -0.970924103185922      0.088577292368171
H       0.863485164478263      0.059514509036248     -0.778326999791844
H      -0.161929168577927      0.802259590393319      0.436927854941089
Cl      1.685090728127392     -0.567963684139272      1.286516508336248
6

C       0.090468009527143      0.193814721683452      0.466020408791735
Cl     -0.542808635349530     -2.035873070301221     -1.120286597698737
H      -0.097662165314119      0.211920991399452     -0.578596092361849
H      -0.685299431988071     -0.175036237336187      1.100172004007064
H       0.949954804992018     -0.364498356764514      0.808169792626899
Cl      0.507408341533363      1.979521191299327      0.924581243681715
6

C       0.285063646945659      0.208037437481806      0.375051755697569
Cl     -1.681309580790639      0.295747291148913     -1.629899782692377
H       0.320708351703246      1.339037217286162      0.432054009648823
H      -0.679458598186372     -0.156514469147623      0.636915653883094
H       0.509180988394192     -0.180030665483201     -0.648263025172156
Cl      1.580448264815729     -0.394738819524349      1.490863987793929
6

C       0.096076950422244     -0.161846440500099      0.343749239342998
Cl     -1.339196774110391      1.429042349000255     -1.222523654826958
H       0.566217804109613      0.661716453629850     -0.121605803993589
H      -0.467403007526656      0.246111376207125      1.168591706485273
H      -0.368398640959313     -0.738857139643457     -0.491306779578778
Cl      1.314309898612791     -1.379010892268752      1.090255765697307
6

C       0.178290206844935      0.058833524315176      0.385889023009184
Cl     -1.143896875212505      0.185402070604525     -2.044943335243644
H      -0.802235325294390     -0.474094740007558      0.468981377819304
H       0.677471575138384     -0.405306357030739     -0.465476638877149
H      -0.177134706693579      1.111160086308388      0.195765490654736
Cl      1.092073743198114     -0.211925696041291      1.908532123768367
6

C       0.503647546751665     -0.373744553616703     -0.229236377201872
Cl     -0.052287451760762      2.267534605802553      0.522705422110150
H      -0.044369958832519      0.451175324636480     -0.792973558114085
H       1.563824696323749     -0.358022122054891     -0.421306337479749
H       0.210243573548070     -0.113073475932836      0.787718714711374
Cl     -0.167538968029447     -2.140337836577515     -0.432907628121413
6

C      -0.039841140700020      0.443474660536936     -0.243251260591691
Cl     -0.789718895595641     -2.139788826198938     -0.391828743403082
H      -0.597775100547011     -0.099422915909670      0.482031199744085
H       0.759595538827270     -0.225582296455570     -0.703186082686685
H      -0.734052715040960      0.913586521532309     -1.006394480057921
Cl      0.819488770797918      1.972796890871720      0.509150623484118
6

C      -0.211045773563811     -0.388223820269502     -0.297979276556532
Cl      1.772966303546411      1.533686753118516      0.167755137037446
H      -0.358411210616509      0.747055929862057     -0.265946800932696
H       0.238852790035551     -0.768397134984099     -1.252214740289531
H       0.518695981217405     -0.546536310515648      0.425669562684220
Cl     -1.712810023570299     -1.386003344345042     -0.035730849164736
6

C       0.126522092001309     -0.273343378521218     -0.360444596147119
Cl     -0.690784425556927      0.408767260968958      2.192184236070943
H       1.015210333824356     -0.437388400836937      0.286251977755697
H      -0.670199783847025     -0.973474583096760     -0.114339971975937
H      -0.320248245633550      0.634384206671967      0.046366664103303
Cl      0.647212711881153     -0.294075641028229     -2.076266742556669
6

C       0.249683490410689     -0.127543986668030      0.186382787720419
Cl     -1.712819559910074      0.486887625120985     -1.507633543899630
H       0.628458934274278      0.658914001251091     -0.443469898507090
H      -0.539139213164987      0.268393996523429      0.781695236422948
H       0.064333360252064     -0.974732603039385     -0.381776416028131
Cl      1.623853954569213     -0.442325288704112      1.445722565717034
6

C       0.190527144264223      0.362801173689505      0.120577341418695
Cl     -0.978587485076162     -1.950138110764954      0.622535400174584
H      -0.547446556932186      0.087297492763682     -0.585321145436922
H       0.021983115297530      0.610138100237577      1.150287963952735
H       0.950227121619335     -0.400322203135943      0.063461458162664
Cl      0.901956079739591      1.818767301338426     -0.681257830376879
6

C       0.501122385526145     -0.142812866031747     -0.046639499258021
Cl     -1.608904305687389      0.377922779886774     -1.464141634156363
H      -0.465132131329113     -0.510790304696670      0.114523113954959
H       0.891164405390342     -0.820478206296883     -0.823412329538456
H       0.443721764429625      0.908979212096682     -0.388151691812681
Cl      1.414385461022945     -0.317528056411575      1.511137523020750
6

C      -0.340385305361110     -0.106489534634207     -0.124095623927445
Cl      2.184418154959715      0.605484399831923      0.471890880692101
H      -0.199003872110893      0.343580541057378      0.810950460758846
H      -0.130654317628938      0.568356221018561     -0.887549251983359
H       0.237096995721174     -0.983897797456947     -0.205437763409890
Cl     -2.066458505135657     -0.567357953452401     -0.421825848645170
6

C      -0.106341304605834     -0.405294166006811     -0.237001347652395
Cl      1.833336368682851      1.292644389699234      0.367198516122599
H       0.161450218419404     -0.448304829922208      0.883836232612097
H      -0.266929215086265      0.587532079438716     -0.635710635693300
H       0.616057840135596     -1.028304660340225     -0.817279834555364
Cl     -1.811824325371035     -1.130044156750941     -0.270715281759038
6

C      -0.399141054913500      0.722109176490520     -0.147136471248430
Cl      1.554995666535177     -0.226367571704031      1.553387773303470
H       0.626376426129141      0.778458997951688     -0.424355075704653
H      -0.464146825325813      0.096612352108352      0.783997694127180
H      -0.774460435282947      1.732641846754660      0.007343055398451
Cl     -1.402352171705232     -0.092442815354289     -1.513970718382396
6

C       0.355538838647647     -0.133403340741452      0.067451440108471
Cl     -2.088047574930812      0.636657267510031      0.632301701422747
H       0.190686966744195      0.937596525751232     -0.086509618629464
H       0.464145056826439     -0.353255163550884      1.086137482808937
H      -0.340484553854381     -0.900458779960928     -0.323433466598232
Cl      1.958647314268745     -0.582469569830295     -0.674382468697956
6

C      -0.135489386253596      0.460084735855034     -0.047272656919318
Cl     -0.513312904633395     -1.990969644631704     -0.849863952654744
H       0.561740388987488     -0.052140262815470     -0.704009656318007
H      -0.948522044549421      0.804325656048078     -0.663098432376401
H      -0.308556420205022     -0.253545618480274      0.730410230333248
Cl      0.578990303749478      1.820907397655546      0.883984779833483
6

C      -0.226107839890560     -0.336016328283634      0.204392266659156
Cl      1.811306372107893      1.548327169789829      0.113621822549078
H       0.043958558366498      0.076710586850055     -0.704293388956003
H       0.557429640460313     -0.970272787965300      0.672522795945937
H      -0.464785608231566      0.381539270396061      0.973149244012504
Cl     -1.738581806420868     -1.419920646992125     -0.209640586866541
6

C       0.532586782073992     -0.111615642794604     -0.078218677894711
Cl     -1.729995106837407      0.679784373516569     -1.336847835641677
H      -0.108508733604609     -0.839513585658551     -0.480596585858237
H       1.182534312353326      0.350439776832744     -0.797355405598125
H      -0.229317743593242      0.646098602834954      0.202977084874462
Cl      1.525527819465694     -0.646432201633800      1.393915797447804
6

C       0.046826035750911     -0.073729582066434      0.461562466453216
Cl      1.004947564010990      1.185960678048019     -1.666330568172413
H      -0.140064995180367      0.898445440614708      0.806571696589359
H      -0.286060000201147     -0.283609634543581     -0.510731555507320
H       1.099272376642304     -0.395352367437013      0.567853387195655
Cl     -1.039953489983219     -1.167220855648679      1.485387553755658
6

C       0.124056685293198     -0.036113586206937      0.415201657988476
Cl     -1.723169230700989      0.578362109993435     -1.288523857197561
H      -0.629517306098464      0.303629348711496      1.143359926755565
H      -0.305201455383525     -0.802816513423039     -0.278673848474270
H       0.348243879265752      0.917805815380149     -0.131139309888766
Cl      1.697813005996252     -0.578029453179425      1.126989237828283
6

C      -0.207767808281744     -0.221267501859799     -0.185509464011858
Cl      1.861230714541151      1.357726624731299      0.502081193339862
H       0.299048190067722     -0.707516882440572      0.567713447289719
H      -0.513929546480469      0.756431696279776      0.161654176746708
H       0.343987973723785     -0.221854279294334     -1.117910490348635
Cl     -1.794506887319073     -1.277840392121533     -0.428179772141334
6

C       0.137018113495259      0.266490676176730      0.329995039900410
Cl     -1.194286077795837      0.034932878525353     -1.987392803269174
H       0.419196535020347     -0.204146962352681     -0.550275570929060
H       0.159854907269491      1.388118200098006      0.160861103957856
H      -0.945141401396924      0.036244821249028      0.497218811078952
Cl      1.158271807488020     -0.159920108399064      1.872520103604757
6

C       0.351456295499332      0.252758903282583      0.168542606497184
Cl     -0.944878209559590     -2.064720839585277      0.243610766283567
H      -0.584244415427051      0.262580675108950      0.741250723997595
H       1.260524920800776     -0.116554844203691      0.651174719161460
H       0.141340667888201     -0.391980199972039     -0.651467716317654
Cl      0.802550883525996      1.986075841466601     -0.321784267984384
6

C       0.811916441260735     -0.308220944419602     -0.197348623689891
Cl     -1.617926692843668     -0.298989067640804     -1.319950023360136
H       0.166602603080548      0.449747975969274     -0.641843612705003
H       0.292431522844041     -1.227013870198888     -0.020653985051467
H       1.686256708465962     -0.407023435208345     -0.805353622624096
Cl      1.281836945677270      0.437093592534922      1.428552233495012
6

C       0.085076315183343     -0.434842567346578      0.071915681028145
Cl     -1.183838211633073      2.079548794749229     -0.350425229811492
H      -0.173183550947684     -0.072538618147291      1.023528542161543
H      -0.876531989844025     -0.751755972322300     -0.375154794381643
H       0.541626871851989      0.275889915770051     -0.569022876986679
Cl      1.169460264006119     -1.916623943169611      0.323802806043119
6

C       0.175072976754876      0.330860310178210      0.309523155797010
Cl     -0.871872085708247     -2.139988276171863     -0.002616200108463
H      -0.871517735052109      0.326435919478286      0.634945814572660
H       0.767763886875514     -0.020735981106696      1.150200423197205
H       0.387138195853311     -0.332689207934891     -0.522728904643699
Cl      0.804496826293246      2.028655187262672     -0.138151057890695
6

C       0.010912614471962      0.306963971835842     -0.524904179353570
Cl     -1.537152347072961     -1.377373321982731      0.966351340655606
H      -0.628366783355489      0.681512917613304      0.288559581825382
H       0.276907962402930     -0.727965235185053     -0.317642633987603
H      -0.508619913760370      0.271896632841603     -1.473076845777442
Cl      1.557910822451475      1.266958875282768     -0.745792771534610
6

C       0.466459242426012      1.159925784178270      0.494093238681344
Cl     -1.531447133500478     -0.052488875045441     -1.089878726196616
H      -0.044067458421409      1.450003707969614      1.408357263394834
H      -0.167366899958353      0.912160102993170     -0.320483381478056
H       1.225740882765137      1.917106902514377      0.254393903356728
Cl      1.344562424407115     -0.462190207407303      0.884305811743630
6

C       0.362096804517122     -0.193631352571927     -0.067925590189944
Cl     -2.154920038576279      0.644053194656721      0.691685056853885
H       0.486336618329432      0.615575279628544      0.599565760968488
H      -0.071394187106691     -1.025679569103986      0.452527265482843
H      -0.387962332340535      0.050765891765266     -0.822075090282127
Cl      2.031468962166429     -0.568230365865958     -0.675211257584110
6

C       0.204760884944378      0.022625467874988      0.446485880576120
Cl     -0.544482354579770     -1.715164391119387     -1.469261519141568
H       0.325761780244463      0.153480541932865     -0.591378179567698
H      -0.782458277897263     -0.324510626465639      0.586898076540265
H       1.005448308411786     -0.550330147634440      0.899525662831550
Cl      0.459502811157705      1.728009993922740      1.292535205012271
6

C       0.162443298308588      0.128690327941840      0.475561790433844
Cl     -1.538437601132088      0.388612413174172     -1.662565886839360
H      -0.406115040179643     -0.696475811525559     -0.107523078430603
H       0.567792916668509      0.742273892369937     -0.324940827533510
H      -0.532691680379074      0.742775502019242      0.943036506991305
Cl      1.493948897559079     -0.454637284836707      1.486920475083721
6

C       0.417102391828365      0.266487546186639      0.177544164307463
Cl     -1.790070188160087      0.424346681264353     -1.519808331141135
H       0.944738838178552      0.952939559697683     -0.371465234628786
H      -0.395564530899890      0.675105026319557      0.793911798178286
H      -0.011811175167949     -0.468512999982778     -0.468124405664014
Cl      1.633469938077766     -0.547607323181708      1.460952486496709
6

C       0.031090648170633      0.443437143704514      0.052023338462774
Cl      0.136930386940264     -2.107293003588651      0.855530773170813
H      -0.726062258071408     -0.251226947489684     -0.177149689299696
H      -0.113183296913348      0.591575985314435      1.122808382765328
H       0.984257626473720     -0.010987801986616     -0.207153822329943
Cl     -0.151587705508348      1.947684550591219     -0.894156026439660
6

C       0.017452371910011      0.346194158321467     -0.241378864507752
Cl     -0.866019321673335     -2.098050551242011      0.081536942725918
H       0.615862305686534     -0.363948193995583     -0.809702403518088
H      -0.838017666858434      0.639301208764493     -0.800039598834644
H      -0.092627661507208     -0.034555864764840      0.720557473505679
Cl      0.869056863220578      1.973907770909051      0.025529335036566
6

C       0.322643593814405      0.433041155094259      0.109956368907675
Cl     -1.114588630025580     -2.018222382095345      0.765010520350174
H       0.501457322565869      0.661389987914376      1.135774973068820
H       0.830273584214638     -0.508888238013768     -0.170235836462354
H      -0.770605339569656      0.439586002761374     -0.042437843589383
Cl      0.989316788641844      1.854665773674469     -0.828513258017693
6

C      -0.460213908636064     -0.418562455763606      0.770521971844516
Cl      1.313438412893106     -0.929213645274302     -1.616631895204961
H       0.526111280014931     -0.619825676176731      1.312382219560774
H      -0.180362542969974     -0.407888248820797     -0.281151514894972
H      -1.066916008925617     -1.333874798774303      0.854056336522802
Cl     -1.137004961082553      1.138179374180908      1.301960280498548
6

C      -0.932548800172569      0.299898319514895     -0.079172825734815
Cl      1.348053971909707     -0.615867075094158     -1.607298159702680
H      -1.951448027874363      0.093197077180477     -0.455713242109624
H      -0.168957736199062     -0.385015302412697     -0.498812669977795
H      -0.809930583199602      1.279190183090236     -0.485504434765602
Cl     -0.948769834337796      0.486181612492899      1.675069539096981
6

C       0.532533334709214     -0.135903934991447      0.059036564389217
Cl     -1.852512181980643      0.720320788783212     -1.396919670903173
H      -0.086568625589493     -0.899907175670052     -0.296631953548371
H       1.175193646356149      0.259907988099485     -0.748677952760204
H      -0.040305069477924      0.661351997631343      0.563211037406077
Cl      1.642273412048510     -0.674881620076818      1.390625382750116
6

C      -0.147043432821121     -1.388894356082332      0.160862810170272
Cl      0.510386492590598      1.290250912171686      1.387112337962222
H       0.733553034418179     -2.073839239217904      0.058726676351682
H      -1.080683246715822     -1.922859262975678      0.405056557480961
H      -0.031980573327189     -0.657695944010726      0.896059624487179
Cl     -0.449786144395276     -0.687327365974838     -1.480281444143941
6

C      -1.248786850901425      0.002435176115185     -0.665652539478472
Cl      0.355026279642573      0.686394810627078      1.720725053387994
H      -1.295298184696691     -0.232318456129391      0.348972752301179
H      -2.135186880553704     -0.111384240710478     -1.236637763278452
H      -0.974581644106081      1.000196808437622     -0.437980926122179
Cl      0.193337221322409     -0.705886911185885     -1.457497867033354
6

C       0.557988518673966     -0.132779710926371      0.042880301773749
Cl     -1.850263675088996      0.725358354771103     -1.392612532910107
H       0.053347621301015     -1.073076239586385     -0.289648671575534
H       1.217234768878356      0.154228722407098     -0.796878265231456
H      -0.114594189208262      0.631313643868651      0.378639886959235
Cl      1.628338817419802     -0.672194708727872      1.398212387399326
6

C      -0.030172621738203      1.448682729799728     -0.099870797483632
Cl     -1.046882722147771     -1.149492620498407     -0.800000569761707
H      -0.035257103102850      1.050792826640759     -1.128458712579558
H       0.314366325967185      2.456204183437407     -0.157177736749730
H      -0.982069626292343      1.247859385164247      0.298884110227206
Cl      1.077093933610456      0.523455285829016      0.861896042438474
6

C       0.805444412641833     -0.728670412829246     -0.119320447646245
Cl     -1.652184954424044      0.466060601928916     -1.468248380408383
H      -0.299113599866459     -0.507115190530229     -0.283811142346053
H       0.911791328916294     -1.815912199038934     -0.193050563548155
H       1.310561865525173     -0.135371234640175     -0.854877647357299
Cl      1.324601926170914     -0.149272840527118      1.546543194646915
6

C      -0.880981105160714      0.307214132204209      0.201108251449710
Cl      1.871194173907995      1.068556458698893      0.397026132490538
H      -1.225237477050513      0.522668981470062      1.203209457323950
H      -1.278645016467379      1.089603329959530     -0.540951123503518
H       0.183780496059271      0.362532204433563      0.159246495279220
Cl     -1.506733613470118     -1.228797696890567     -0.488523680470621
6

C       0.918633051102532      0.996237043529362      0.377268563376163
Cl     -1.359582892026182      0.245416141275442     -1.162886410729612
H      -0.148454793480568      1.278387410671883      0.363261682936766
H       1.131646927849062      0.860938957387972     -0.689735638733140
H       1.576437636384895      1.585166356345823      0.954439909414106
Cl      0.975554446731067     -0.688860197581008      1.017206230307650
6

C      -0.396024058854607      0.404370022154239     -0.822906783927181
Cl      1.183522026704097      1.024732353606950      1.478559927480902
H      -1.170401625208683      1.025187882815871     -0.341640535881538
H       0.046685342004878      0.682177692031274     -1.766364637590627
H       0.390226059566714      0.207628198019705     -0.180484452867518
Cl     -1.028486677865530     -1.216190803794362     -1.134674710976000
6

C      -0.200908680290695     -0.300413449054801      0.258539850287605
Cl      0.923318866177695      1.459854134962924     -1.642090021287359
H       0.588661669652623      0.386743302548979      0.547518503029337
H      -1.034016730148693      0.194969217147118     -0.246655802240028
H       0.255534711125364     -0.888531381035449     -0.503261207116168
Cl     -0.849850514382567     -1.349345267577064      1.560247864801383
6

C      -0.456601563202341     -0.297094813224163      0.218317474887840
Cl      1.501896401141920      0.541584703396083     -1.762257506899275
H      -0.712417019413337     -0.995011829208295     -0.543774474964295
H       0.664792488096751     -0.369013095335660      0.296596125627758
H      -0.503120646352301      0.687959086847400     -0.277644185598987
Cl     -1.331532719485693     -0.421700918740697      1.703211242423563
6

C       0.450134953342385     -0.122429252710546      0.250072714736874
Cl     -1.949779069945208      0.656222335396805     -1.334034443905210
H      -0.256831260450397      0.432436234760118      0.764168526668087
H      -0.111124510021668     -0.956062692601421     -0.296504814087172
H       0.871764010630528      0.526625216460133     -0.506515486238698
Cl      1.782940998558033     -0.614826707593764      1.250410726306967
6

C      -0.111177087384036      1.203879415084089      0.104302899785566
Cl     -1.358046879046555     -1.220001811510983     -0.974412866958318
H      -0.821498195374346      0.361728218879506      0.163465162285647
H       0.094762264219526      1.333398946439502     -0.932093290827368
H      -0.504479254220513      2.096149393805618      0.630442643436510
Cl      1.430724252909116      0.704306397514543      0.943002679078546
6

C       0.954807132356237     -0.877664050764693     -0.240633266265249
Cl     -1.521483679349743      0.388693566641621     -1.319480520377709
H       1.609009429518579     -0.345032066075618     -0.879078328132834
H      -0.057775790173309     -0.729495566322555     -0.468169310380546
H       1.336958094337291     -1.913699875698669     -0.065102099622521
Cl      1.115856437197905     -0.006359116940772      1.441170074599256
6

C       0.489168646913782     -0.005834913358811      0.178592683951734
Cl     -1.797859213245815      0.479260766686679     -1.401659539717627
H       0.225517850947980      1.028390891337025      0.440894614986235
H      -0.347816026926807     -0.637526778588438      0.246049744675744
H       0.849324518781714     -0.208760187168835     -0.822804297550590
Cl      1.611448855795132     -0.482461827691836      1.345012715752802
6

C       0.461662884868673     -0.704222416354881      0.171437099961750
Cl     -1.715485685887074      0.473387817551043     -1.480476581436491
H       0.796515823076646     -0.295762319161298     -0.764142670227244
H      -0.543402192151405     -0.362426896809367      0.472163772712435
H       0.374701744945781     -1.858056348848720     -0.015516657557271
Cl      1.541215705378320     -0.163238565867672      1.431134536637359
6

C      -0.438223679696591     -0.558713428744710     -0.157849494766253
Cl      2.323520900432385      0.221981276542181      0.092626869445397
H      -0.466415537257660     -1.568930010364312     -0.448218982902034
H       0.117794774744638     -0.365808095227365      0.795423585434420
H      -0.103883423247780      0.004886137038881     -1.007210504686370
Cl     -2.162177350754448      0.022193554965668     -0.020378174635567
6

C       0.361114569021808     -0.891269637123600     -0.359589815440643
Cl      0.545059695754574      1.970840406017615     -0.817523030339515
H       1.315421909446115     -0.610740269123880      0.161073290725525
H      -0.230941353033614     -0.054200238876874     -0.601465234109412
H       0.377798046444696     -1.651268957045986     -1.112280822274172
Cl     -0.708989848651683     -1.603004616109075      0.983506878605851
6

C      -0.383434465232654     -0.493635257239120     -0.241489534682941
Cl     -0.358673333759413      2.118839423058020      0.963901740730222
H      -1.102355877274775     -0.748147021366464      0.503158131521033
H      -0.798329338354506      0.097547054240124     -1.070458334783467
H       0.297617275960988      0.150805747095461      0.255380220535770
Cl      0.534169069869264     -1.937376922395373     -0.873212145704400
6

C      -0.899516526389931     -0.166588088839887     -0.124424562682776
Cl      1.267431583940251     -0.795473788894867      1.686820653606432
H      -1.815639193594549     -0.710280964986822      0.029610846612400
H      -0.690132813913536      0.456218227295849      0.644899765063116
H       0.005523077432059     -0.767624652015655     -0.323680307203063
Cl     -0.891568567861640      0.880967453884438     -1.654639370800325
6

C      -0.315171762417620      0.344264015891937     -0.005658991324310
Cl      1.100964143468275     -2.106076593626554      0.494517108230028
H       0.782864658593638      0.314243789344815     -0.095110217662253
H      -0.751126975178877     -0.495686177774118     -0.624505456799042
H      -0.647443739362288      0.183907962984492      1.022795180068741
Cl     -0.976671908128566      1.989364593794974     -0.501220487548963
6

C      -0.055000252301809     -0.876884952753855     -0.500792037878298
Cl      1.722376021321494      1.364400980027170      0.292725340480928
H       0.347413298325648     -1.875951842651673     -0.489533214899467
H       0.440290394043146     -0.152675033067098      0.176410655964816
H       0.107063353529824     -0.536184575402984     -1.495262502778246
Cl     -1.729183275252950     -0.994370088341526     -0.071628998896628
6

C       0.041159503292135      0.432503947546749      1.010381422660799
Cl     -1.593082217481538      0.299715745373248     -1.518920244213149
H      -0.755845368663785     -0.095896082354130      1.518852946973681
H      -0.265918104654972      0.487952663319888     -0.040088370551487
H       0.254652275196094      1.436719689355513      1.416945201920072
Cl      1.600949108699183     -0.498254853820853      1.094249814759053
6

C       0.232599052479060     -0.594272553354884     -0.403296021821262
Cl     -1.967694350423685      0.511608894849019      0.946801881389291
H       0.294158241757472     -1.452367675065943      0.300057536012105
H      -0.263503281901478     -0.910822940770458     -1.316716117321320
H      -0.236451743439204      0.262545978512392      0.044348650637559
Cl      1.894737959408914     -0.250529700694784     -0.782511982144968
6

C       0.466877289941834     -0.064554594594924      0.139906130240448
Cl     -1.827759278868513      0.331325520829679     -1.637172610880370
H       0.370609967124736      0.985452897536689     -0.046465940550419
H      -0.464677620133486     -0.457637202330162      0.483236051893599
H       0.886401107890862     -0.627939305387628     -0.675143206696092
Cl      1.647044603212308     -0.306606484588713      1.596548282242765
6

C      -1.029981256872020      0.246129696714831      0.896671371050161
Cl      1.523342507751138      1.286066440093748     -0.464615949094238
H      -1.114773530584060      0.006965996813392      1.915119211966868
H      -1.916795704633344      0.801047250385139      0.575843576603503
H      -0.077525581529486      0.676655704929914      0.533798536441267
Cl     -1.085963877241412     -1.411674623196376      0.074802712047799
6

C      -0.017349356841578     -0.698725782813852      0.137562362196363
Cl     -0.493835624164447      2.128238498527438      1.008021216740474
H      -0.087208013150047      0.234237667457663     -0.360894293919770
H       0.754865020460457     -0.675269921506768      0.876718233563679
H      -0.995698066033469     -0.970966083522541      0.580339997710993
Cl      0.509041506032375     -1.851350213572587     -1.085798220441319
6

C      -0.439420708809294     -1.131206869600646      0.684472592384495
Cl      1.651778785794619      0.745767856911911      0.208501445325211
H      -1.120140186044125     -1.591886359266624      1.386188648046158
H       0.187544748201461     -0.409799787870213      1.207340799329899
H       0.103928973087889     -1.874735498412420      0.203051379288652
Cl     -1.479333710195704     -0.252273957631587     -0.519930324885422
6

C      -0.564611908817639      0.424150864892425      0.096290207279907
Cl      2.353100552548923      0.038843262700169      0.191950571560184
H      -0.554003278364746      1.466441307932840     -0.295435706618505
H       0.318452904061331     -0.148186844466238     -0.329675344926187
H      -0.539016491314015      0.453399526459776      1.169944728122587
Cl     -2.139777081819688     -0.232927980896790     -0.240067187233791
6

C       0.453574949487319      0.369601050957144      0.448313971251352
Cl     -1.591446206458031      0.526435695009155     -1.607410561371495
H       0.489935769571787      1.427959705376594      0.692573124556688
H      -0.605630770736752      0.096853054931898      0.491998300703514
H       0.731832924976061      0.142873056245662     -0.574716272690907
Cl      1.420248583171883     -0.699081831148291      1.438174084573433
6

C       0.259160829784165      0.036561252542555      0.575852172801817
Cl     -1.852019983807352      0.638115462989617     -1.338380007144082
H      -0.461551502755270     -0.330828670704889      1.243216551007080
H      -0.007103816223832     -0.195809920947440     -0.463410263333174
H       0.217530473958419      1.123804647510468      0.537548398803722
Cl      1.771352934928458     -0.667483039536705      1.105814309781849
6

C      -0.420095785299594      0.029026318292878     -0.381364945468434
Cl      2.338283785118847     -0.115242533071694      0.231706576737352
H      -0.206272156637681     -0.648104574865187     -1.228480615315974
H       0.045440878648989     -0.300188466091257      0.549208189600861
H       0.056627859631476      0.983436249816634     -0.571828614748739
Cl     -2.192985970649545      0.104408697710738     -0.066919998209585
6

C      -0.157945453746919      0.698383907443670     -0.044538571181548
Cl     -1.070292614053500     -2.183025211547275     -0.090907618825256
H      -0.496047355196836      0.362806062861438      0.891032591773879
H       0.177440243910837     -0.281152593034690     -0.353368942779866
H      -0.856086408943881      1.180613695693651     -0.720590170125377
Cl      1.157208662384832      1.910510277410467      0.111199373740931
6

C       0.453669370688374     -0.125828642170731      0.212576290654951
Cl     -1.704354781158059      0.656602991862911     -1.510291671177669
H      -0.494875112345241      0.127364445039547      0.709336868580181
H       0.263707094682317     -0.818527237818287     -0.575139615149183
H       0.661662098798331      0.840294422622790     -0.302033902223286
Cl      1.538403840533974     -0.618210801785949      1.443039922656524
6

C      -0.548390946207221     -0.693587567778820     -0.664387115748582
Cl     -0.212771894390102      2.217407073066425      0.119388031687365
H      -0.591548486205980     -0.988400370072128     -1.744102762764285
H      -0.262823677204082      0.349082990212253     -0.505581146372052
H      -1.548081746465783     -0.724176005636352     -0.191594757069680
Cl      0.466887471147487     -1.943638903555239      0.175132773469002
6

C       0.087588806359818      0.420583747402844     -0.500818008838209
Cl      0.227749029145158     -2.288470641131539      0.624664793211409
H       1.082081905524376      0.136921926891972     -0.240401745778897
H      -0.011489384722282     -0.006342441873997     -1.455065115447468
H      -0.510863823183243     -0.086909823602582      0.249124681040016
Cl     -0.273341008845804      2.144728739614976     -0.413854129691401
6

C      -0.146141552970832     -0.736975285008697     -0.141865193295615
Cl      1.880166184741739      1.320046583006572      0.458697456190166
H       0.325879730364775     -1.663336499002327      0.173997535241483
H       0.037145901377613      0.111588553047952      0.553209710334457
H       0.340299877606213     -0.342936870989234     -0.986556485822632
Cl     -1.850649849641385     -1.016473876554684     -0.403256923867389
6

C       0.128421183915222      0.421946488703369      0.803413685696313
Cl     -1.672024451580711      0.255791196681187     -1.653129835690507
H       0.017528849950963      0.214854214390897     -0.262243288919038
H       0.262210317519106      1.466216839066576      1.071348108861457
H      -0.772561429090572     -0.021200446740139      1.294096457621691
Cl      1.642526510810811     -0.445950543575080      1.321117743541478
6

C       0.397208881064074     -0.116188877972263      0.219743205898467
Cl     -1.673218405716980      0.365846372047471     -1.672180354904256
H      -0.449189923239601      0.488468413765389      0.455506265544798
H      -0.004972722972070     -1.123509956228958      0.021154945595725
H       0.848780859291765      0.255056100884971     -0.715684200826558
Cl      1.527417248333478     -0.315675146703725      1.604524488262712
6

C      -0.629853688770552     -0.197226382526068      0.161547837441958
Cl      2.091854467670828     -1.031117127810077     -0.185893120295091
H      -0.459781076303102     -0.599387999698934     -0.846722678308183
H      -1.003597103973746     -1.023420314330195      0.751387970773877
H       0.347295365803816      0.084288619401079      0.538169486680516
Cl     -1.846715281977950      1.141687337477350      0.118566504416563
6

C       0.328823273007302      0.220133893477652     -0.306866191985264
Cl     -0.593030271803826     -1.020226281430695      2.087714780778100
H      -0.609426193159067     -0.249477796328037     -0.107545200802164
H       0.428203754926272      1.002304219439878      0.445584679546869
H       1.254300347769984     -0.307656947960055      0.008689253968953
Cl      0.451107595783967      0.932983431627790     -1.993602869089514
6

C       0.802692114728572      0.144930710069630      0.148921588964967
Cl     -1.797852969473453     -0.357552726555852      1.473883890992965
H      -0.238175240545701      0.270747871703279      0.311475509059022
H       1.319156907745679      0.916865631941405      0.725821664567221
H       1.045141590965443     -0.901547492840464      0.484618255064476
Cl      1.465433583458321      0.300313874721212     -1.567615568205383
6

C      -0.837429742420667      0.080536268830613     -0.050698544919555
Cl      1.497620121706490     -1.798497211082449     -0.380266817443882
H       0.137901298737617      0.052811981297211     -0.567455113339406
H      -1.638216666136159     -0.371698908253848     -0.599094492326628
H      -0.682940467624334     -0.457413105873798      0.856950775127828
Cl     -1.151806566899225      1.793283933456735      0.406247518267861
6

C       0.106985753307796     -1.170813460451868     -0.219803101898904
Cl      0.357291764371070      0.931480563792391      1.965140914758791
H       0.154037242778330     -0.323082749971491      0.459996276095993
H       1.144754515763992     -1.429639761933331     -0.252873991351720
H      -0.600264612266542     -1.897188323675863      0.063739159188984
Cl     -0.413402377810471     -0.431008050513057     -1.898370062250450
6

C      -0.113185262503549     -0.654043194216243      0.015048995879667
Cl     -1.222139219973684      1.881196049945359      0.477856450920314
H       0.040918590490847      0.435846501274000     -0.202217792105884
H      -0.303107154164039     -0.632993629169974      1.096601859203219
H      -1.048215862634720     -0.934071909744873     -0.512299590768748
Cl      1.297748693870659     -1.627430701689420     -0.493819628399905
6

C      -0.726411012446007     -0.697533990149623     -0.622264304902018
Cl      0.688946807017444      1.946331164244995     -0.606241132775139
H      -1.644462686886669     -0.116048244712928     -0.415854796411665
H      -0.927265610000887     -1.496600355126191     -1.407081112644107
H       0.133812632209242     -0.009589587751606     -0.801248845681627
Cl     -0.373506985847243     -1.663868629723765      0.891690915538291
6

C      -0.112189665497326     -0.329502558504828     -0.393216490439826
Cl      1.346046672512855      1.669406675684456      0.853448211158678
H       0.347876204234908     -0.123932925465510     -1.317940458473089
H       0.653153482574851     -0.624279833680745      0.341170121383513
H      -0.483192566974921      0.516190903059112      0.105456968635522
Cl     -1.322759500284519     -1.551168783973978     -0.695445188815285
6

C      -0.433261369091639     -0.725319013604647     -0.996352993281832
Cl      1.385782351179898     -0.547236744416807      1.644224041455303
H      -1.230631491684278     -1.494362227795008     -0.886548911552566
H       0.179565881497822     -0.807159523015883     -0.018274026231438
H       0.188395247289435     -0.949726565704452     -1.830271293334462
Cl     -1.214457272760754      0.885433217631288     -1.228873666637924
6

C       0.151114779869204      0.211027348242780      1.016187371732613
Cl     -1.771873253669014      0.461569838017411     -1.541667808459962
H      -0.151867752556612      0.371602561553829     -0.020314530274064
H       0.051443169613492      1.180420907205757      1.528359020563329
H      -0.557210695520780     -0.417455736921269      1.533726066241755
Cl      1.739372738568377     -0.565329887479706      1.110877082286024
6

C       0.224887643739862      0.993515365664507      0.539704285567765
Cl     -1.830016950807760     -0.634149191990772     -1.384913320352453
H       0.594681740853162      1.834698217934829     -0.031036192628491
H      -0.344868096171908      1.310719868311566      1.409204773324859
H      -0.386777566957335      0.320848418039461     -0.086104039682326
Cl      1.757716080418362      0.198969793025569      1.165314188298950
6

C       0.691893327693151     -0.163710326189644      1.018194569238929
Cl      0.470305000950049      1.271307649934570     -1.774248338057234
H       1.392443473177366     -0.906526785835837      0.562145786859716
H       1.054302679320372      0.251655931190271      1.937332074967927
H       0.520227653922035      0.642377456892632      0.275278566027040
Cl     -0.789093163313765     -1.215484855215266      1.350369933250278
6

C      -0.881946942533148      0.816825233626560      0.367494658809150
Cl      1.869163891582318     -0.769599302076656      1.139420307970866
H       0.111005452209653      0.289655169702186      0.395797706655117
H      -1.585352181210382      0.403199084628909      1.029134097832525
H      -0.850757795850058      1.916788582956016      0.479753729918812
Cl     -1.504233846792033      0.418642803879948     -1.318091714617907
6

C      -0.546481713365949     -0.440472557179802      0.075978115229006
Cl      1.763715611124553      1.188264077575766      1.189037596950868
H       0.074900953478888      0.456842848985985     -0.095436173672667
H       0.106552866635312     -1.133996664607622      0.524547337781101
H      -1.110993412197928     -0.110573846512054      0.886544435578074
Cl     -1.552128368019922     -1.016626690616192     -1.252190036626430
6

C      -0.125633441883551      0.621391533566722     -0.621644688843418
Cl      0.388152857058600     -0.115297329698095      2.442684681608711
H       0.309263170637749     -0.024231554571884      0.202962465818771
H      -1.069758539569705      1.003875198686060     -0.330552400116474
H       0.488926240211242      1.445327865237900     -0.830265834345951
Cl     -0.337864423991917     -0.164192232815211     -2.204825923569516
6

C      -0.270160927993857      1.117762948149021      0.918024132384005
Cl     -0.848996760801597     -1.879923918371148     -0.108246882383597
H      -0.612341402972660      0.121840107636174      0.696386379839140
H      -1.119144913974580      1.825270365809985      0.835962814663660
H       0.103725576681342      1.202827428306989      1.938641261085394
Cl      0.986815822362161      1.411642164487219     -0.301489259599407
6

C       0.151835542100486     -0.917374173173812      0.900380209643430
Cl     -1.600259667205677      1.407836963016692     -0.242518162283318
H       0.393313638727236     -0.814491847862314      1.969460378666568
H      -0.530441949334758     -1.754505543944632      0.579123841430260
H      -0.423079155072969     -0.072909694005205      0.658833371417927
Cl      1.564744644052993     -1.021895537445786     -0.153745409797764
6

C       0.486994975299837     -0.789809963951839      0.125522453272794
Cl     -0.429446297794627      1.894366404558426      1.348697557179690
H       0.036035690821734      0.265231739851657      0.230075752722939
H       1.585522476338042     -0.787537316341584      0.244336669671469
H      -0.007764403863092     -1.397762214876280      0.932465886111061
Cl      0.218557700848763     -1.572170754044436     -1.431230237609412
6

C      -1.208187774356603      0.356051650613452      0.745802081853512
Cl      0.194263066464330     -1.086311365968399     -1.711287444833886
H      -1.821216563407930      1.230362663243213      0.791035749478880
H      -1.591491565068623     -0.316073587375271      1.528773068934044
H      -0.993165519540099     -0.119775618871799     -0.231614786600773
Cl      0.340367793761274      0.943084118008770      1.399221763897089
6

C       0.821383820404591     -0.732667863293230     -0.103677761881400
Cl     -1.673732736584000      0.480363789172927     -1.468582014892817
H      -0.251776095749719     -0.436185777071586     -0.352046746932785
H       1.072737767376054     -1.814600420310981     -0.143877390092257
H       1.448857136175846     -0.294807424332674     -0.854587442958660
Cl      1.330894417115886     -0.159742291945747      1.542110626192738
6

C       0.006023901920017      0.379820572248065      0.929743556967395
Cl     -0.581011657526588     -2.193558841230583     -0.853888451058765
H       0.875739874790384     -0.066994084176940      1.429064446140018
H      -0.167293054640510     -0.278304504801483      0.069125429810214
H      -0.967123804269818      0.511170423544158      1.482703539031206
Cl      0.586325996427277      2.060153377125843      0.454117211988631
6

C       0.443297871521764      0.429954840470785      0.962881651166867
Cl     -0.741880853060835     -2.133637810626922     -0.543976766185764
H      -0.151160166585143     -0.267711583490993      0.451793542982259
H       0.265037843666875      0.567194671336907      2.045799199168286
H       1.412789663003466      0.080543632746711      0.843299959317719
Cl      0.548274889347013      1.977156723934314      0.122741467025065
6

C       0.520025699090056      0.730790690067579      0.459484458988968
Cl     -1.955418080632612     -0.006971312677891     -1.389036756185376
H      -0.201885566421851      0.939803229084120      1.257401133172038
H      -0.027021848670557      0.259012277523169     -0.323560940932339
H       0.914264362323408      1.710073935247735      0.245625556566623
Cl      1.759737728740390     -0.323344273663196      1.199819004091935
6

C       0.762285688348527     -0.667985366145146     -0.009116113128186
Cl     -1.648740413704175      0.545851469441303     -1.667464494102305
H       1.573348297582569     -0.467242606014324     -0.673518322484512
H      -0.185721612360439     -0.173087138647560     -0.391287679034150
H       0.674920061009828     -1.744590545753638      0.007185195045494
Cl      1.331819101350007     -0.251714039666766      1.700626000666702
6

C       0.461206342206040     -1.095693284027149      0.099499475536945
Cl     -2.047191322126864      0.799296240401432      0.716880559602458
H      -0.384240268659255     -1.324106560103544     -0.611834207371430
H      -0.059652433421476     -0.370681182522304      0.779563322313237
H       0.947483460962388     -1.945928284612407      0.527185220520622
Cl      1.876608279498114     -0.324537036172785     -0.770351979935896
6

C      -0.052538629631997      1.462626361044940      0.079809814226650
Cl     -1.273449732314290     -1.347303591532793     -0.946727801228263
H      -0.358009980087502      0.655658199389620     -0.633339316586301
H       0.188523498831486      2.400973725066052     -0.454859575139565
H      -0.791143323871893      1.763000441558376      0.842186211611534
Cl      1.318565566561915      0.714700075384599      0.926682247007633
6

C       0.147041171125494     -0.859537065151869      0.680583172427475
Cl     -1.137907080836925      0.053484154400820     -1.994516093755422
H      -0.656129546238958     -1.241549388782516      1.329919254874326
H       0.890395825972419     -1.548637419127687      0.426076534785395
H      -0.351509607959017     -0.338780139168577     -0.151233670073523
Cl      1.091421037634177      0.326710440019312      1.718293676249942
6

C       0.277496257105568     -0.560795290500394      0.846068259451968
Cl     -2.025988042335314      0.541006302120991     -0.929183885860141
H      -0.136341105590802      0.257351788007270      1.504759613782170
H       0.053775182102015     -1.508510840968285      1.292144532445391
H      -0.365938690990092     -0.434568101638547     -0.062391231423874
Cl      1.944721049593426     -0.303067650328686      0.564768797499099
6

C       0.443190327210857     -0.671886599410826     -0.644791990962176
Cl     -1.691398906851504      1.492873868925415     -0.380701319786795
H      -0.095344604498464     -1.580608798349530     -0.966416911431608
H       1.254298299355781     -0.284418625466188     -1.377902952168341
H      -0.302072905191750      0.059622895904383     -0.325916516594134
Cl      1.516874369302485     -1.213892833392066      0.675093276759441
6

C       1.191394660049610     -1.079856325746519     -0.325477772487446
Cl     -0.350379451936917      1.108782122653380      1.427214859378722
H       1.041113278297573     -0.423484641456369      0.600487618731620
H       2.090567709842489     -0.862624918418121     -0.837273319274345
H       1.058798715831074     -2.036377838460197     -0.005497017827835
Cl     -0.172437044634563     -0.648437365923840     -1.310048864866317
6

C      -0.452692402667509     -0.419438119641754     -0.964599608502326
Cl      2.089049578780731      0.801170309428599      0.437426387120738
H      -0.178291292781125     -1.446904078917257     -1.130155010398596
H       0.291993753250253      0.156919554446887     -0.386233052389088
H      -0.554865196898803      0.048680690647387     -1.867068732756863
Cl     -1.923126292835462     -0.623762537369032     -0.014398732744709
6

C      -0.372122394581567     -0.504770547655937     -0.609066064719229
Cl      2.259372195822962      0.655695119672757      0.500812501582558
H      -0.006661734501378     -1.462179306667863     -0.568747389331847
H       0.198094053541780      0.030916455241353      0.122001569957135
H      -0.269432505902145     -0.019658767589306     -1.541782538791523
Cl     -2.131073570444201     -0.443415062130740     -0.237909001205267
6

C      -0.448829088049379     -0.907285680528105     -0.517940482131763
Cl      1.911336959763915      0.965348393379742     -0.353556084804879
H       0.309107489047307     -0.109983582596101     -0.468881124154024
H      -0.856964596827765     -0.984198525010967     -1.534060726227594
H      -0.013753128405227     -1.832654678270430     -0.299017435554092
Cl     -1.743297769506199     -0.574723293549383      0.594497074680987
6

C       0.035380267082843     -0.097112665713667      1.479326702314324
Cl      1.094608556988746      1.172720023156074     -1.247988202436588
H      -0.521205667006100      0.283974459335113      2.288821956409208
H       0.407244874143828      0.660042898370946      0.684540020433417
H       0.809443717193176     -0.820677164785891      1.778001367863794
Cl     -1.126371580279510     -1.143323878912824      0.611667545935589
6

C       0.710894844608518     -0.776564712815244      0.079300166078738
Cl     -1.613480267848416      0.374845489293335     -1.504533484458065
H       0.169248894607392     -0.074036877612855     -0.599262121404507
H       0.015357603641476     -1.580368094105623      0.474016421145876
H       1.494565408581835     -1.323403829483397     -0.455569141508818
Cl      1.324871995332785     -0.027061285139993      1.494180510289652
6

C       0.275991564519813      0.302977495232568      1.341587513717727
Cl     -1.728996581199652      0.595215735307022     -1.258117866694462
H      -0.254210563671734     -0.342060177452282      2.046341832854907
H      -0.510593800765463      0.406347523236761      0.580199813955971
H       0.592538516813320      1.274102605752660      1.625798559030471
Cl      1.640384713582080     -0.735925460734038      0.682654776292466
6

C       0.467876878829586     -0.414120587731261      0.204643272239281
Cl     -1.642884268581469      0.787603105020054     -1.606998796585998
H       0.547733842204025      0.585267509601223     -0.108104265032580
H      -0.585897843536202     -0.398913805155232      0.454376184353251
H       0.760214251250019     -1.022428869194982     -0.652138173953034
Cl      1.463829378777774     -0.623519433784296      1.546359666594540
6

C       0.418169453419821     -1.336965382950197     -0.413268170728401
Cl     -1.454986825051662      1.309113034220431     -0.877533635662815
H      -0.006375421898070     -2.324373400167076     -0.072434764632405
H       1.253888701038775     -1.596936651713960     -1.213191681506558
H      -0.325856894900582     -0.604981521053901     -0.706037634549020
Cl      1.287097884562542     -0.727426345359106      1.074186989455555
6

C       0.659565831692248      0.678882738426537      0.854683223954254
Cl     -1.959404760658117      0.408465572405120     -0.840055809081008
H       1.224867824174723      1.614906501553875      0.795758191004168
H       0.347749008901317      0.569330988480857      1.862448518633542
H      -0.203742296662284      0.589753064751292      0.216932053031911
Cl      1.697010663700127     -0.717358183137563      0.468723225845878
6

C       1.056942697103239     -0.218657506797044     -0.068540568349420
Cl     -1.462579652157046      0.899488149797065     -1.576112423750558
H       0.721022114017330     -1.047495194674141     -0.715947776581231
H       2.082829660338135      0.049549849928738     -0.380733177560629
H       0.436742008743153      0.606067538070292     -0.382687949758264
Cl      1.012326978863101     -0.814260839690817      1.641400001228035
6

C       0.204638361534279      0.133635975116164      0.805813606004051
Cl     -1.808043571699471      0.463789572380307     -1.591896048163747
H       0.148644007580216      0.465114871077972     -0.236714123516961
H       0.200746914511299      1.062091889126137      1.393725432666116
H      -0.540065341589070     -0.621748740312498      0.983651767835426
Cl      1.744130693122997     -0.534813645191903      1.258005622118162
6

C       0.287409504715029      0.362180754767294     -1.220322108932152
Cl      1.234235853194775      0.122211674437850      1.722946909198726
H       0.179459927727507      1.413191451644778     -1.389980347609566
H       0.810390387046425     -0.090500847945989     -2.117018984149823
H       0.742380318548598      0.088912283361196     -0.312073106922583
Cl     -1.380869535550829     -0.285062132989822     -1.200890100494235
6

C      -0.624668602348322     -0.864142968531581     -0.621054270289505
Cl      2.096629132752639      0.317345701861129      0.009145714790421
H      -0.999837044343252     -1.888487218915941     -0.841153849786622
H       0.218219114079062     -0.881191488944836      0.011582430515730
H      -0.312988881434848     -0.421814192837545     -1.629583572350782
Cl     -1.853857390890937      0.066187331677284      0.271201565096746
6

C       0.469202586480890     -0.780131054896998      0.129624436064788
Cl     -0.431316271410154      1.894525571009098      1.336579917373442
H       0.120566926071106      0.212488569566659      0.225554722963622
H       1.525802643366134     -0.793438645506797      0.223172189141110
H      -0.019359707212359     -1.369877235385516      0.852890822725968
Cl      0.226080214785441     -1.574734653373469     -1.417509389257361
6

C      -1.062749684373074      0.022391463092774      0.629668174113220
Cl      1.100654365617856     -1.664514082498755     -0.643169629211698
H      -0.772170866626084     -0.525873372481030     -0.295973117692384
H      -2.109478501649320     -0.026807927332896      0.945267078225427
H      -0.320602462872458     -0.474181397980161      1.320713720195187
Cl     -0.649524427541664      1.686125753476773      0.373812444967754
6

C      -0.162423032148141      1.015053023451472     -0.793526395539303
Cl     -0.661883497625567     -1.968875050126329     -0.255904785943514
H      -0.343888811415155     -0.119123516280524     -0.693851300981578
H       0.257029086951832      1.416395190428219     -1.736480144358325
H      -1.115520985176943      1.429329733118820     -0.624935650754793
Cl      0.751103886749632      1.547430308710261      0.611638347852846
6

C       0.313333872264124      0.934180669499995      0.300346802549427
Cl     -0.732371867091956     -0.886336117764941     -2.148444681241060
H       1.304832913501428      1.110322781453476     -0.122293140266351
H      -0.275885547425716      1.838872189437481      0.386500459540343
H      -0.050172915310441      0.074175664653865     -0.338118021392049
Cl      0.598378699641017      0.483853702475955      2.048784216990370
6

C       0.112126927075863      0.329495251449387      1.412100636985983
Cl     -1.431661723405938      0.360503611880503     -1.290997852163557
H      -0.722321444984004      0.441213966851691      0.658959150676210
H       0.443843038143385      1.310154028719893      1.785056880604728
H      -0.326022410493877     -0.224940007905928      2.295445607826608
Cl      1.410860039421863     -0.515544708544127      0.677792828663996
6

C       0.005416258528001     -0.053316151116277      1.460883964872252
Cl      1.085876630391567      1.121604137620182     -1.232241687285779
H      -0.628275881440999      0.446279617509660      2.160237801531466
H       0.400094923918601      0.586711010871625      0.731569068226747
H       0.782444336437791     -0.760842219997642      1.854703875214909
Cl     -1.103471896036879     -1.111278194167269      0.602307691996273
6

C      -0.216882419016130     -0.161895747919047     -1.001265210415198
Cl      1.814828281164367     -0.479508358592952      1.162097974697502
H       0.483420421390164      0.173307831767460     -0.278710689333323
H       0.190621503342697     -0.075938586339461     -1.980202589878772
H      -0.317684110845136     -1.215957274402570     -0.670443718813516
Cl     -1.751478039742537      0.566167499960017     -0.739559517820013
6

C       1.325959811591787     -0.431020886386506     -0.229369365875939
Cl     -1.636013729057566      0.382871209899790     -1.450640903226486
H       1.522827839006538     -1.500719494265027     -0.400787927179621
H       2.024342256755560      0.257375584930159     -0.625326669330605
H       0.347579688094697     -0.269962050118622     -0.629059704057497
Cl      1.076013416528482     -0.193804798799206      1.575418650716145
6

C      -0.921870839381441      0.609090212041679      0.490362935951993
Cl      1.844679560490817     -0.837833873394501      1.029676180811691
H      -0.022176874632009      0.002537330427231      0.494194064029315
H      -1.762413285406623      0.226708840600779      1.087891319622187
H      -0.643525894314010      1.589942401333417      0.737693389109296
Cl     -1.463293618753227      0.579737269225987     -1.261780164638594
6

C       0.448425753370216      0.813309107837256      0.441726499872260
Cl     -1.400462447111749     -1.778854805792662      0.834459050161414
H      -0.381161236365855      1.356007812022426      0.807533159590406
H       1.332038876188449      0.728951149654222      1.157809024099436
H       0.032862256714608     -0.157232832430267      0.271309778839196
Cl      1.220556902980874      1.448479527019330     -1.047720606386974
6

C      -1.137982094928830     -0.070007933040984     -0.449797345161755
Cl      1.345781539112423      1.599585798950102     -0.154977988462662
H      -0.150552463004985      0.273929689845630     -0.794222741012987
H      -1.578370644872791      0.660867972594573      0.206704110219960
H      -1.816875689947892     -0.136181082253984     -1.253169652969504
Cl     -0.859393157436855     -1.598574239826647      0.359715074577551
6

C      -0.039414655632555     -0.201848245886907      1.059382584934852
Cl      1.784305663086158      0.142099035321181     -1.330481725382626
H       0.387328600628337      0.691130791124053      1.545955747456077
H       0.311913453457507     -0.331445543861733     -0.017887954265788
H       0.273714649914794     -1.043405645483105      1.670988939668433
Cl     -1.798616831741441     -0.054268585596120      0.880583462635812
6

C      -0.031054049317376      0.443111246604943      0.961367106491352
Cl     -0.567815506250170     -2.082034964097772     -0.830470697293435
H       0.802203631006577     -0.056343095247300      1.440669257832923
H      -0.428011993235316     -0.255327059053997      0.241955736715738
H      -0.645359937567434      0.623800303112702      1.807120267087001
Cl      0.586047603077944      1.923026885875672      0.405516013519204
6

C       0.700357970978686     -0.280299702436395      0.061872746316368
Cl     -1.881132327289407      0.474892678696079     -1.609057461815169
H       1.231063764872800     -0.889260590974118     -0.697130897544895
H       0.672318604245021      0.753650425245382     -0.330957381222632
H      -0.402277098075558     -0.563468540539873      0.014835582906855
Cl      1.601157328625519     -0.360044975963177      1.616905280190963
6

C       0.896106092099572     -0.866863607369467     -0.336268918257602
Cl     -1.814946737046341      0.690215160919877     -1.047625957631240
H       0.907042438391400     -1.938913006298193     -0.323178321494282
H       1.563314263427259     -0.592964001988292     -1.128078666719603
H      -0.101276874703714     -0.406086507528855     -0.433506403530330
Cl      1.443968944720837     -0.312969293160890      1.215151133260861
6

C      -0.828675250133145     -0.956274797020740     -0.462435759556470
Cl     -0.250233443365019      2.314098053790531      0.477298619761882
H      -0.663001049826036      0.105423706578392     -0.137549648121578
H      -1.669801970561636     -1.294652820844590      0.175627146150461
H      -1.165106058526931     -0.918207288099921     -1.499379192395253
Cl      0.630462238312688     -1.930173865339171     -0.279067081935253
6

C       1.074193556606417     -0.891737856509053     -0.058659813271859
Cl     -1.656134808552494      0.485671232148334     -1.422366552492008
H       0.191345078687647     -0.426629321123315     -0.538850645899046
H       0.968497448844232     -1.972514241691329      0.052876078335913
H       1.970074400118449     -0.634131420777621     -0.635368102371203
Cl      1.203184312883351     -0.097287464080864      1.474126113239578
6

C      -0.156212278680158     -0.950946792025761     -1.199900389299472
Cl     -0.131349145226196     -0.269484981051988      2.251344271128957
H      -1.023489851351485     -1.386487489103274     -1.684121665520848
H      -0.305203119930439     -0.799660375441078     -0.093058463518005
H       0.744761468080924     -1.672533068906361     -1.346808742548617
Cl      0.200879995281298      0.701399573433932     -1.755970946490407
6

C       0.250826195492309     -1.034193386288365      0.894027965007936
Cl     -1.122137984528322      0.109909045543674     -1.980805605442768
H      -0.552346828166790     -1.438542498397936      1.563582990255640
H       0.983458157616624     -1.861515591508208      0.711473266412028
H      -0.257544078441512     -0.674318509020708     -0.074132143431655
Cl      1.032218965541759      0.353500499574182      1.615313323528753
6

C       0.388742037016442     -1.158372588522013     -0.207656363726898
Cl     -1.605729813899998      1.467399957872360     -1.049368093007999
H      -0.502848038797325     -1.811199629879809      0.090062120121786
H       0.935646854180050     -1.401961813655532     -1.099522332858768
H      -0.031448220500849     -0.140094338507694     -0.522600804378342
Cl      1.462605920917028     -0.979577814317068      1.163288490468517
6

C      -0.319440632700406      1.085210535492706      0.670305978954048
Cl     -0.967747261226748     -2.044801644625082     -0.070680263135316
H      -1.211884874485321      1.174670360767038     -0.032897964715900
H      -0.394815972131028      1.678820178481928      1.591993527828834
H      -0.239537727144679     -0.000734408367236      0.790966975741952
Cl      1.128475326719411      1.595999333715895     -0.223252265845900
6

C       0.533692967322736      0.106125218207239      1.150044310732511
Cl     -1.531512229888222     -1.522403418528341     -0.920511277092189
H       0.200152567067732      0.307895136203484      2.150159495585655
H       1.318028327668387     -0.708661400251870      1.132694973672656
H      -0.290913297115623     -0.257167227598444      0.476493545490186
Cl      1.315792287182575      1.505154531749582      0.423963885975809
6

C      -0.711646417161859     -0.091570204480675     -1.141819724467126
Cl      2.058688989149843      1.009070597577534      0.458395281283444
H      -0.443992704383604     -0.702834086934459     -2.021675608715412
H       0.215876187887716      0.243282880601001     -0.644494624987658
H      -1.339299168656794      0.754270795226347     -1.426829228335620
Cl     -1.773003795153670     -0.986425396437525      0.044852678330358
6

C      -0.024333551053758      0.351095119489656     -1.076074499946699
Cl      1.320712986291326     -1.512968741780341      1.272711197731226
H      -0.239577365958652     -0.409972825740468     -1.783067362617643
H       0.123916724377310     -0.251843705061106     -0.113729009478803
H       0.916354705318639      0.901354439482944     -1.401023895468754
Cl     -1.335235675559034      1.387201246938560     -0.814349176615167
6

C       1.346268329253647     -0.618656967038632     -0.269019955497356
Cl     -1.586042244105670      0.450327362312677     -1.237443058844022
H       2.036174141916717      0.098719784675893     -0.722777217046882
H       0.357729807965384     -0.437043060979747     -0.696136756601405
H       1.779116557872868     -1.619179364520960     -0.382551672262920
Cl      1.011248631285270     -0.185056516246334      1.379814738859722
6

C       1.061332998293210      0.084794374878228      0.842978867870301
Cl     -0.524034247697173     -1.321153901153011     -1.910041614929455
H       2.074769704544778      0.391551354718501      0.811385458518913
H       0.707196375222424     -0.141600423861675     -0.191024989162173
H       0.852245143482747     -0.873812962109753      1.370934461537274
Cl      0.061101791969790      1.310163426987742      1.567806227839654
6

C       1.463855140206505     -0.039452827505755      0.202174775563776
Cl     -1.623080253421378     -0.586446426113909      1.259640007471546
H       0.615214679498379     -0.118518921007791      0.950953227833836
H       2.232423712380211      0.535261941191251      0.669358174822776
H       1.854026430499914     -1.041051240242851      0.078802022586672
Cl      0.993414746228723      0.617565483856964     -1.376453196807034
6

C       0.430768666023596     -0.741452008152237      0.547104689844261
Cl     -1.244923066406500      0.246030100770028     -2.177827663626587
H       0.227905216765564     -0.077619354970736     -0.361960703452070
H      -0.543283920930037     -1.116216658184925      0.855669199623151
H       1.030371659126160     -1.613303389966873      0.163852390834094
Cl      1.078641674411855      0.085004499745196      1.973762901882694
6

C       1.083611768751553      0.928495724797443      0.488090834994424
Cl     -1.751083930011774      0.248085561356461     -1.542185960356676
H       0.651889417791097      1.540834999735779      1.233591240040624
H       0.348725764840424      0.641329994003186     -0.291742793121941
H       2.055819926650045      1.230518333204799      0.141471765264399
Cl      1.297031813096964     -0.659711709285986      1.346009774376427
6

C       0.324492438879687      0.978427168872088      0.340304940132100
Cl     -0.717050804091684     -0.886819814289893     -2.085103375744296
H       1.241262115193962      0.981739455672155     -0.186987225346272
H      -0.045913726229969      1.997729061652322      0.394155027007997
H      -0.278385721191185      0.220991392043857     -0.247709135056738
Cl      0.581034526165013      0.464310581173763      1.970955647341910
6

C       0.292316081748254      0.215158554944281      1.123061923286514
Cl     -1.763323787218283      0.597518478873099     -1.298179914819826
H      -0.222137762112425     -0.208389068969836      2.009054059636824
H      -0.339737437024667      0.324177534432110      0.241141706680054
H       0.615708637391606      1.213196362675347      1.345308054245777
Cl      1.662751923645999     -0.708206380430141      0.815433381343922
6

C       0.196528401362698     -1.198077677950167     -0.001713992962479
Cl     -1.707826617451431      1.290069727756631      0.738145135025434
H       0.265209500874164     -1.836217451359431      0.900938466190524
H      -0.423174552696480     -1.774498838202689     -0.728908204626393
H      -0.438606796442514     -0.384241770520745      0.302058051886718
Cl      1.658202972720318     -0.770548466418873     -0.751044831795170
6

C       0.130130128166414     -0.080969857398671     -1.517376559526340
Cl      1.438161790087776     -0.289397367612324      1.647327700737975
H       0.677646265546997     -0.008726339298320     -0.583722637972713
H       0.540210776177901      0.633839047470261     -2.243845474544798
H       0.183817297779711     -1.077730794295320     -1.875331731065813
Cl     -1.522107649146392      0.329701119037665     -0.999493204297835
6

C       0.292763924484206      0.249688683243150      1.254486278667954
Cl     -1.732992279198612      0.576923754828073     -1.313783535100058
H      -0.165996098000264     -0.154938844804178      2.162860893788661
H      -0.408797590503951      0.388361524561887      0.424131838993361
H       0.550318879790083      1.222976716666821      1.617122668199571
Cl      1.634495328851727     -0.702933948510164      0.769202914020497
6

C       0.906690907249612     -0.731903471085374     -0.026621095393281
Cl     -1.759235851430390      0.531349785799350     -1.493020088432573
H       0.090177995230334     -0.121437211388638     -0.476431446524657
H       0.445920245935469     -1.742019271494343     -0.087126353633749
H       1.697523740259939     -0.772291091803879     -0.738353793999579
Cl      1.388523427050913     -0.208423801413176      1.539058815193613
6

C      -0.463524845835877      0.764860210485651      0.527489151991873
Cl     -0.321986592029134     -1.266515013925883     -2.025730973576486
H      -1.508375671622062      0.540777585548128      0.802282292292816
H      -0.168547899687070     -0.037807920604820     -0.257879768803477
H      -0.536772952367102      1.709958702666199     -0.056246169523220
Cl      0.541981035448018      0.944445400873875      1.833129173594202
6

C       0.170756901421868      0.294926653802676      1.413456185583428
Cl     -1.670891796437999      0.421500353322330     -1.535484154948833
H      -0.537980398895428      0.172821824573916      0.601418886945012
H       0.263902116431197      1.318743569655595      1.635173931662223
H      -0.226634760769855     -0.151924411688242      2.318627181231761
Cl      1.627274239445086     -0.559517903371059      0.927058654105920
6

C      -1.151715417519043      0.539311085971661     -0.495131897511413
Cl      1.065707767499944      0.215512491855861      1.961666313155774
H      -0.811321547668271      1.532151598891517     -0.892801302405559
H      -0.550070909663006      0.428543651979254      0.389791226348635
H      -2.161673803724156      0.440624769473132     -0.296661772236149
Cl     -0.575312713311973     -0.466519432169306     -1.771169883139180
6

C      -1.221532517511548     -0.676623651943345     -0.366407169530291
Cl      1.610745360036319     -0.575165561412604      1.429490488108740
H      -1.030858230984194     -1.520785476720050     -0.975642276430349
H      -2.205061678687230     -0.720177666532763     -0.012688552535835
H      -0.471192553329999     -0.678177583328306      0.372606788607655
Cl     -1.091461962842018      0.887420019406505     -1.287838405008372
6

C       0.471415963751141      0.465951763078721      1.146370072669598
Cl     -0.705733065076615     -2.085364630768183     -0.615821255210264
H       0.377592214905789      0.734624157432307      2.163947681681151
H       1.446565689031317      0.001236140630226      0.988802557345196
H      -0.312181374475756     -0.255615557459819      0.852178453193687
Cl      0.503017988001517      1.913837597626696      0.113535809100455
6

C       0.158311518034907      0.362461774801119      1.088383733354249
Cl     -1.550367087834402      0.528615877938051     -1.737698297897495
H       0.370381459781711      1.437005021763383      1.049836471819859
H      -0.454301529217844      0.208604685127341      1.968528386238447
H      -0.364005814152591      0.132059387188548      0.169654473216127
Cl      1.509465244323479     -0.701970428684703      1.278287846353294
6

C       0.604518456597191     -1.300411471076288      0.743473745929023
Cl     -1.042312056883020      0.286813719829937     -1.799709372270257
H      -0.003778503690228     -1.039293382756910     -0.092047827006027
H       0.115631105030957     -2.037994324325297      1.383775273742089
H       1.563006058429721     -1.780944376393592      0.376597537206379
Cl      0.789868369683106      0.291926480994917      1.500371297625179
6

C      -0.769873793727569     -0.351333305189897     -0.939088570224897
Cl     -0.249721395782160      1.423348727710746      1.799745990311337
H      -1.395675129254059      0.053879969256428     -1.726655951853076
H      -0.352393786834426      0.549287996425647     -0.353484124492255
H      -1.294154752380933     -0.907767330670353     -0.154364746988207
Cl      0.597070213674371     -1.295650547497971     -1.418031641118361
6

C       0.193726365933600      1.617249329620378     -0.425026362026856
Cl     -1.015747378271968     -1.494470424959147     -0.800015465471347
H      -0.155544447920292      0.733128989088101     -0.989802770667140
H       0.967953514346917      2.155672333760108     -0.911749988929870
H      -0.723277264723137      2.102662531562757     -0.149995018569825
Cl      0.947575523903993      0.804592363934745      1.002355431471258
6

C       1.067018511935444     -1.239460540126032     -0.016781569023564
Cl     -1.584565620410245      0.534517355252518     -1.251104709139781
H       1.988998148903676     -1.241075276529457     -0.545648539271454
H       0.234239707657252     -0.844909616084209     -0.663933499660530
H       0.824255710481665     -2.150081802200972      0.496600077761016
Cl      1.136389799185011      0.005880833064168      1.277063785089041
6

C      -0.073725819277698      1.133641397481910     -0.886002435462345
Cl     -0.663096333081782     -2.155782307342008     -0.202411290923465
H      -1.059231422244764      1.640448792445412     -1.009165208223877
H      -0.296851111576643      0.056374632843244     -0.751536503023161
H       0.624007751389001      1.329138008874764     -1.679998120782997
Cl      0.708891881630024      1.685645891240696      0.600436698060975
6

C       0.965741925644494     -0.833214523157139      0.000662260103084
Cl     -1.695266438019047      0.595067816672270     -1.653833440349658
H       1.892274399235660     -0.737150137431229     -0.538823573503777
H       0.144798480229767     -0.183973989292497     -0.391694533696878
H       0.673068799616004     -1.869176868607212      0.126815667279828
Cl      1.290997070418726     -0.233421468550048      1.676461864985498
6

C      -0.492953087862631      1.166031408590541     -0.175933473786856
Cl     -0.913556384443780     -2.060457941818967     -0.064869758577430
H      -0.907717526126504      1.832389496000715     -0.906101739215998
H      -1.045577137754989      1.198510455904454      0.782573432283741
H      -0.702125690126493      0.081723998890709     -0.447183892116968
Cl      1.156081723094218      1.576883098631868      0.140706566766269
6

C      -0.714070639830965      0.543170486824366     -0.981477593410105
Cl      1.952615514894049     -1.313639533461057      0.105160277912475
H      -1.235325546438247     -0.236815363882272     -1.483986269248632
H       0.218639973583109      0.049154676381221     -0.583571910713857
H      -0.326902577177705      1.249209539516642     -1.695242566008289
Cl     -1.672473362277927      1.099420578310713      0.334372318036415
6

C       0.446549813629986     -1.314812071169129     -0.315760805807628
Cl     -1.920529601736831      1.257061771883230     -0.550980313626113
H       0.804757529464098     -1.748434891134920     -1.230732331043455
H      -0.237982152523429     -0.450126607375637     -0.413159790036218
H      -0.039010300649863     -2.127668015925678      0.256730885695148
Cl      1.754225031682907     -0.688569610039437      0.697408002309373
6

C       0.897070143003006     -0.749805076420429     -0.048353168051236
Cl     -1.727767659015470      0.517511439792997     -1.478290911281604
H      -0.088943888735315     -0.386948058641153     -0.370590503651911
H       0.894927267232006     -1.828217203400484     -0.108617957305853
H       1.649679773082241     -0.521715705992008     -0.803402751419284
Cl      1.354001285407520     -0.185644449985844      1.531144000238967
6

C      -0.998974744071091      0.512491466276572     -0.923055134182491
Cl     -0.020436567446083     -1.685432803191702      1.353931398206754
H      -1.065817656748777     -0.031454923128635     -1.822220854761909
H      -1.898667060545264      1.124319392370765     -0.833844413699666
H      -1.016521351105283     -0.131360685983722     -0.070440606016732
Cl      0.472102005188944      1.484453090498505     -0.963659659472199
6

C       0.645955006521362      0.259645698145235     -1.059455290118578
Cl     -0.016774841378819      1.017308370127310      2.087769647772106
H       1.670851954977977     -0.062487243545988     -1.010333050405407
H       0.269495680310882      0.586079148100694     -0.064999512479019
H       0.538784343426997      1.144676837416341     -1.734001785164708
Cl     -0.272577221184619     -1.152716532957442     -1.648928279296854
6

C       0.876102914397521     -0.886122581388491     -0.352107918397763
Cl     -1.906621445658459      0.763193782580132     -1.017386173068388
H       0.624287163528791     -1.924790412026766     -0.332690717620906
H       1.627287577187545     -0.662472161844576     -1.104468253461320
H       0.006222915758670     -0.263440526407123     -0.630009913214309
Cl      1.545585278026408     -0.381903879896399      1.195464436629678
6

C      -1.112788419761642     -0.689590307726931      0.248767504431697
Cl      0.813355173061737      1.236683384195999     -1.842639137210483
H      -1.292938976710019     -1.558779193076248     -0.287643198911368
H      -0.384274521399320     -0.071554365034359     -0.302926572245127
H      -1.974264986031130     -0.128802624183265      0.469509699715260
Cl     -0.332497852278351     -0.953019675934769      1.761795189573903
6

C      -1.056403369880172      1.250510112892229      0.091528740292787
Cl      2.099820356937173     -0.142131751113411      0.153572269555511
H       0.005887561331363      1.057921763020261      0.394913154387723
H      -1.685566258252763      1.735154080419633      0.806672679194918
H      -1.122727171596765      1.676824644618037     -0.885283351065894
Cl     -1.662210032787740     -0.408659127812115     -0.193577476947112
6

C       1.378047357501742      0.026525129110610      0.228104367720903
Cl     -1.757894212510109     -0.535848823510477      1.325202080319357
H       0.491109151525791     -0.231225507596733      0.729289777821975
H       1.877194433294648      0.821580400794744      0.775338946391187
H       1.964380549592562     -0.932386068607286      0.285258329457818
Cl      1.167793439070252      0.536587161989033     -1.453381705447626
6

C       1.256213469917711     -0.406637182269719     -0.118617871973015
Cl     -1.696611249692367      0.381334607420413     -1.588408190571485
H       1.398999542839960     -1.419076716245996     -0.403006459115687
H       2.042169685800516      0.200286238275524     -0.505217745083584
H       0.337420677067442     -0.017166467174903     -0.587377082709637
Cl      1.163544998292195     -0.208416023585485      1.671124279639756
6

C      -0.671640873429538      0.681262865968961     -0.899027324593277
Cl      1.976146480351431     -1.215739716474872     -0.049405652610361
H      -1.143964242636557      0.048894760587572     -1.627786942319460
H       0.243573437041150      0.177047291648620     -0.552657652534137
H      -0.307959576686869      1.534342779611450     -1.351178944297118
Cl     -1.714225585679984      0.934864811153105      0.454429452981401
6

C       0.559651380444066     -0.812035475286038      0.269204478838844
Cl     -1.686737683721461      0.602854757020552     -1.707054133294932
H      -0.046769090255438     -0.043907080986614     -0.236855413685717
H      -0.180649216844373     -1.521782379184643      0.694032744034004
H       1.224010560028972     -1.274396340768035     -0.468827944248162
Cl      1.468781753637799     -0.246968591124684      1.616174833534089
6

C      -0.624281091062315      1.089238119128183     -0.427052283397245
Cl      2.135734830870433     -0.901979113514145     -0.454448264394458
H      -0.972739618222505      0.956396026211266     -1.481093512061165
H       0.326707039429820      0.488367891029569     -0.323620505968876
H      -0.531582554609358      2.078128636017013     -0.123903735780431
Cl     -1.890734090695020      0.432757258999871      0.653979200127182
6

C       0.900998872034535     -0.168126505350003      1.043241590399475
Cl     -1.891458005669179      1.131007794835142     -0.238267687677137
H      -0.160542530103427      0.222292735109562      0.824148657056668
H       1.560175907954317      0.684776759699474      1.040699075024264
H       0.839671422580693     -0.673780581845435      2.068587444556528
Cl      1.522512541893647     -1.080677407487002     -0.227043381443892
6

C      -0.513482186112526      1.043080133969596     -0.743569651046300
Cl     -0.156292220533402     -0.605720327511250      2.204118314503347
H      -0.330292284935908      2.085866237764733     -0.643059734904142
H      -0.451106317831460      0.587693455858144      0.264195528359451
H      -1.563472160069963      0.903441534547213     -1.025562581820608
Cl      0.396942834534457      0.150598952980772     -1.912251536466982
6

C      -0.251880727387444     -0.860416214569042     -0.672163266549916
Cl      1.854088229497293      1.612076284808069      0.328843866634969
H       0.395846249421709     -1.724036314217145     -0.516496908175711
H       0.225002916672537     -0.010439949679395     -0.191515323022472
H      -0.273698110548608     -0.598084627633611     -1.685931967662228
Cl     -1.778618239295284     -1.254229161201593     -0.033034311007796
6

C      -0.313719466559647      1.209686805503864      0.188193509772319
Cl      1.430404788631122     -1.400613173333838      1.005228968369209
H       0.503113306266030      1.876727982944786     -0.130132614156253
H       0.216554533542421      0.254570628607354      0.461438280533457
H      -0.766159223371886      1.603877554200807      1.085769053515307
Cl     -1.322789899280494      0.884545308849027     -1.109285486381239
6

C       0.174411673200012     -1.451569235646176      0.346676810359241
Cl     -1.330613961754366      1.305780899414302     -1.658779383933734
H      -0.497951740527995     -2.107165705987896      0.891323682233562
H       0.749014793380283     -2.160529651462255     -0.316613802694761
H      -0.225791435135378     -0.621377302009876     -0.251033970680894
Cl      1.270802046452104     -0.674949211682815      1.532116464741790
6

C      -1.444272085089594      0.194855986113510     -0.546364401738899
Cl      1.221147680191820      0.743460573804271      1.819684548254202
H      -1.235756459887810      1.205076859675117     -0.926531617633273
H      -0.899840943933100      0.165851729574612      0.433671243790229
H      -2.493968187734936     -0.052201236514051     -0.556287926979749
Cl     -0.600167309802586     -0.846977990469099     -1.604736048493521
6

C      -0.867263824407601      0.951640134781030     -0.810707849728047
Cl      2.235421551462352     -0.684309438109253     -0.090579958236034
H      -1.313321376352164      0.618032044999495     -1.761822693323111
H       0.174105685631986      0.541107989518579     -0.716015582719592
H      -0.926673074607450      2.022653721272036     -0.716773240477806
Cl     -1.882837019151779      0.271406821333741      0.456097035576946
6

C       1.177607305681221     -0.500578168346692     -0.114816817726776
Cl     -1.893407083244767      0.484138734567736     -1.511324327423210
H       1.475780697515503     -1.451025933312806     -0.487731493677117
H       1.736741590010212      0.309241429405716     -0.649803824869053
H       0.114647536870791     -0.275256511535943     -0.431813419933519
Cl      1.399809663455457     -0.274242494128316      1.594849527031229
6

C       1.129735305944337     -1.109486501743120     -0.402491401793839
Cl     -2.048966604197219      0.886333331010078     -1.004935917391748
H       1.052289115499505     -2.202647203470562     -0.240337703368368
H       1.853192239767438     -0.975119885077149     -1.185997160355825
H       0.164110695588462     -0.614778141754798     -0.651222104677501
Cl      1.578913020361924     -0.402583599992255      1.200380251696217
6

C      -1.320572142949715      0.133736467561278      0.454326637151439
Cl      2.275495331563974      1.011880231869227      0.483153344222004
H      -1.358299600229714     -0.135413161932945      1.477958678854080
H      -2.001066779484006      1.003484589309863      0.267536158629497
H      -0.291888673405793      0.385137730165127      0.238466953617674
Cl     -1.724244073383062     -1.092826453101381     -0.693498921775046
6

C       0.885682047113903      0.014235827576400      1.087055349806050
Cl     -0.612576032950585     -1.642410954133325     -1.802280122782406
H       1.952863507685493      0.130694256151202      1.052841309194960
H       0.521490445188647     -0.374763394207150      0.036631166852388
H       0.452063603639417     -0.627497364329415      1.788540053906232
Cl      0.229282493744648      1.662370122240048      1.352134609758068
6

C       1.259121595625103     -0.126661889402214     -0.151675419499810
Cl     -1.902409342573506     -1.018290404958975      1.394468437354732
H       0.300223663111993     -0.282041251824992      0.367024221440658
H       2.014194935739312      0.058988912081688      0.592120930871729
H       1.512900766489253     -1.121321950270399     -0.665510602046794
Cl      1.366972180223229      1.099431878525834     -1.351427821361938
6

C      -0.837830806867487     -0.143956991412267     -1.129511849046722
Cl      2.208978734181912      1.072107122468722      0.577799805788686
H      -0.499487266961637     -0.781754787201123     -1.953480776986709
H       0.065396873093832      0.066616955793918     -0.617649387246857
H      -1.208678305811176      0.767283177521719     -1.564028405802745
Cl     -1.878397727960134     -1.024815023315838     -0.077523172290867
6

C       1.296964270209443      0.628900949691726      0.245399415335086
Cl     -2.107507048245850      0.127675335936601      0.981010133806905
H       0.198487124137216      0.941217251541843      0.271562077097457
H       2.073712152645328      1.438274094304461      0.268206423729552
H       1.489576007269051      0.027837912197882      1.064830300215078
Cl      1.561111918885913     -0.409207555932554     -1.109781021509022
6

C       0.285935491135405     -1.214685108737029      1.085214159790638
Cl     -1.082301796605222      0.260248385432604     -1.998964612968990
H      -0.443141776710192     -1.594529257293431      1.830080583243216
H       1.052685490788576     -1.904860610219799      0.995142084859694
H      -0.322534309634705     -1.074665567953829      0.136492498887037
Cl      0.977261552212966      0.281366021337220      1.547062887677839
6

C       0.074284012259980      0.355439138410418      1.497440623797246
Cl     -1.549024516359452      0.247837019712094     -1.773456293938608
H      -0.513395747745690     -0.156264262007397      2.243901614792620
H      -0.476446460850298      0.287809276106003      0.526752813870559
H       0.199779598116919      1.360444759892431      1.918251988177403
Cl      1.546320929338521     -0.410689070026109      1.132774291100702
6

C       0.654240181120372      0.566701678335050      1.314056163497938
Cl     -0.710240512019794     -2.059147758553777     -0.798256723299829
H       0.295508617737937      0.795813686917811      2.271494887719413
H       1.718517500348256      0.266251832526279      1.381386423031003
H       0.157322664928600     -0.330812171746985      0.917317843757303
Cl      0.426832941111030      1.846347836608444      0.223083540577207
6

C      -0.069087378200877      0.680603288395503      1.403213841101504
Cl     -0.612494895167373     -2.083837581306113     -0.844493266607714
H      -1.072527064466300      1.015714651943966      1.709420025165457
H       0.488833776707892      0.635061150038112      2.322383366838352
H      -0.121018255344595     -0.245324955079383      0.850674691218217
Cl      0.655940811528936      1.813275647579829      0.230232636047546
6

C      -1.015413378747112      0.072520995402840     -1.273716019884034
Cl      1.927082508255339     -1.107163201959281      0.542076803622194
H      -1.880328769045192     -0.532302129729075     -1.488615535439664
H      -0.147397515667606     -0.529565105142908     -0.914376781138031
H      -0.816916838327387      0.621037397614273     -2.164125468046905
Cl     -1.502159225881400      1.095126722415500      0.019340907004846
6

C      -0.941297052608888      1.286921070558307     -0.044310734214193
Cl      1.862572534777897     -0.689220798722047      1.222126009317265
H      -0.013167579825762      0.805242758255275      0.419805875374635
H      -1.645469265942836      1.417141443333136      0.739850512264695
H      -0.558212447879100      2.158882404109590     -0.495499408010218
Cl     -1.480611942764313      0.128613585265953     -1.225997772556170
6

C       0.956203901608106     -0.771521475965017      0.123487610117550
Cl     -1.844001082389852      0.681723852954633     -1.733103516276060
H       1.725860728433076     -0.479199359411993     -0.602239698818835
H      -0.042653745477651     -0.288743177702855     -0.181284641600115
H       0.934151994295334     -1.863290243296902      0.078691630950530
Cl      1.445601564441091     -0.345503060557689      1.711305538448769
6

C       0.709126738013580     -1.182030364279299      0.298919167478914
Cl     -1.722973484328463      0.751385174900122     -1.676755765117520
H      -0.107950989192588     -0.516365432489195     -0.212652330729554
H       0.438049474902400     -2.151324907598294      0.684933656552971
H       1.448121750226122     -1.439050082269290     -0.462117035547038
Cl      1.432147891998255     -0.234122521836824      1.575188382178510
6

C       0.675343361000117      0.524294915307266      1.260247181658031
Cl     -0.702989149520960     -2.099511270958473     -0.813432859721516
H       0.043741478165344      0.529841545275914      2.132333851718187
H       1.718016366028451      0.478629165833496      1.565448307322455
H       0.414955089856562     -0.414253002532362      0.651095119854460
Cl      0.412278973315182      1.904975934484554      0.262784137689877
6

C       1.380576341445021     -0.385922188339308     -0.452493883336075
Cl     -1.721746213316820     -1.107476635586565      1.086770782942608
H       0.411116548534523     -0.765679679843984     -0.042576410198549
H       2.195872570236830     -0.508089231436728      0.227879752483048
H       1.720417858936912     -1.014317715574521     -1.319976159924849
Cl      1.130938634455731      1.303293355586945     -0.901195205144859
6

C      -0.818397533637778     -0.995438017456550     -0.778442313982893
Cl     -0.211039282042108      2.257167312114831      0.490591973924126
H      -0.987523331031525     -1.255267225143697     -1.791128165797332
H      -0.655769178997957      0.139563610155122     -0.563888262164838
H      -1.672711195192747     -1.398717151908656     -0.264342269393666
Cl      0.582613457257565     -1.848401665832654     -0.152363928784965
6

C       1.023886598830941      0.866851311568098      0.462496043431685
Cl     -1.877007963241596      0.207102846010997     -1.633007808134636
H       0.689375476760148      1.609513114407264      1.199124754612058
H       0.209302246188756      0.813762776477560     -0.271183242415859
H       1.942092476757153      1.136289039936713     -0.124951860014832
Cl      1.449323949141089     -0.602019420158072      1.453474562801532
6

C      -0.881705835683917     -0.214180034936334     -1.331907715169592
Cl      1.915994645672029      1.211586081341039      0.631035614262515
H      -0.563959599570126     -0.814237815042489     -2.212457624347650
H       0.001909965923872      0.228492520371944     -0.877927707916754
H      -1.648969471344628      0.516456393100242     -1.573353772504788
Cl     -1.554390243690960     -1.137048433600484     -0.047154300171982
6

C      -0.194836545131324      1.106111949682273     -0.740352782850408
Cl      1.824095206365627     -1.817298137751962      0.344393270820191
H      -0.358599031836803      0.914378299864254     -1.783413154173061
H       0.422381271527840      0.271015433382843     -0.275684199821342
H       0.354478935152599      2.022038611095155     -0.552688569396452
Cl     -1.769974628669473      1.351329098803220     -0.019285866431048
6

C       0.701418313699605     -1.199189385779079      0.266380644578504
Cl     -1.681100804384371      0.712651828199569     -1.647091546496995
H       0.119327860951515     -0.493842925797480     -0.366843426283467
H       0.105311547645272     -1.940662523139281      0.732876621588147
H       1.388132605202642     -1.751172917506395     -0.338882869022370
Cl      1.397591366986475     -0.187330883038300      1.556065722775514
6

C       0.062513010101014      1.340599938562491      0.138026897501049
Cl     -1.451687514104890     -1.616505086603468     -1.100072077963205
H      -0.545480563637852      0.395225213789260      0.008897745627038
H       0.256668635385068      1.685906994302528     -0.885846348879227
H      -0.509339578502988      2.160384827223311      0.521825546192872
Cl      1.453202124950749      1.041684352226227      1.063404178827227
6

C      -0.266531172396654      1.112553745094374      0.509480599265103
Cl      1.907816652464689     -1.231458506130693     -1.282417967151758
H      -0.224007367347468      2.108962206452105      0.049060536463742
H       0.056935096189449      0.418594838734165     -0.251867318268808
H       0.412198870500731      1.205232679855456      1.425199626284353
Cl     -1.824481862633419      0.748368659158345      1.075040154316511
6

C       1.256583444723859     -1.018861339563031     -0.037505697927273
Cl     -1.726827345706909      0.553125761938404     -1.417455333387679
H       0.272931527648268     -0.828215946646196     -0.601001128547438
H       1.198158219770818     -2.115695309040987      0.119963431376007
H       2.124714021512190     -0.801899215381610     -0.604006783503280
Cl      1.198833158015475     -0.101410091858625      1.461015439856638
6

C      -0.439188183804831      1.555786222330298     -0.049020155154579
Cl     -1.053349947138770     -2.101358082515688     -0.099634910063429
H      -0.779357635522203      2.184787137509559     -0.930044712136436
H      -0.815292007151442      1.936085718728847      0.891502999667736
H      -0.764739689705422      0.494946774237235     -0.268306982785248
Cl      1.269241448484877      1.442985882122784      0.124968748381519
6

C      -0.268435448323359     -1.058448382317977     -0.454459222600704
Cl      2.049629319408055      1.673276678700674      0.434760504094584
H       0.205062793409908     -1.835959280019566      0.131710966935245
H       0.207466354741442     -0.048529496679166     -0.187678825154734
H       0.002889615680843     -1.291739267431296     -1.507017705623625
Cl     -1.970491489905427     -1.224344058432607     -0.236340217183141
6

C       0.184963651250484      0.760064385446810      1.328937907633545
Cl     -1.544851928254474      0.082878303768098     -1.683024635464008
H       0.464030080573664      1.729919566118838      1.077522960248857
H      -0.133210858367946      0.698854004176098      2.391336233930673
H      -0.584463650711456      0.463908537880670      0.557309236517341
Cl      1.489395656569371     -0.422651417975217      1.118278486332031
6

C      -1.310523991797268     -0.228249821651545     -0.993813323847419
Cl      1.735930846446337      1.683290956046363      0.242331389409657
H      -2.176824066996019      0.392653125321331     -0.783724122501923
H      -1.220893302719091     -0.639896392584973     -2.004823367912280
H      -0.408591722426735      0.394178831607235     -0.813958306804793
Cl     -1.183675184094994     -1.610134466370852      0.196822846876046
6

C      -0.185072476959164     -0.903719619297320      1.227419928644409
Cl      0.300342478344703      2.371900603704404     -0.397413279335524
H      -0.938208619389997     -0.998195375517540      1.991305728806481
H      -0.161874588184659      0.126050038174327      0.829602501522857
H       0.773755674099931     -0.999692143467527      1.823885087301520
Cl     -0.228358171588752     -2.012482027455150     -0.150527268679156
6

C      -0.791397318135793     -0.191715646427994     -1.112615608290213
Cl      2.184280303572891      1.026141174123609      0.564442801994787
H      -0.447876024744602     -0.832584482413694     -1.915321274020883
H       0.135412108324672      0.272457451607551     -0.561523681747431
H      -1.443048574892515      0.578906705894198     -1.545659330875878
Cl     -1.866225866919251     -0.961718981831410     -0.073094130849185
6

C      -0.338703235849707     -0.322466699008729      1.516230363915355
Cl      1.248361161893115      1.642655108460531     -1.215246434009586
H       0.286166759684022      0.156392392980578      0.778934101755311
H       0.202702126043121     -0.827228385114168      2.298122070720524
H      -1.049267992361578      0.453964038537904      1.856763075174328
Cl     -1.117668725637017     -1.527231851732225      0.561234228011855
6

C       0.565371496180958     -0.703331970503086      0.345397523424936
Cl     -1.829827583459078      0.681888512012932     -1.831650711386615
H      -0.029112631187147      0.144972849934248     -0.058697371257523
H       0.002607914319455     -1.589035161296351      0.539362965392286
H       1.140664739180934     -1.038111529035547     -0.500176048919329
Cl      1.606590620324496     -0.373009766488721      1.715179537467449
6

C      -0.648150765818485     -0.345335848832576      1.061198015036254
Cl     -0.164696685809574     -0.332357012157914     -2.417199151345429
H      -1.693104608105457      0.047684448117238      1.217915277615148
H      -0.704659701761827     -1.395893720592355      1.263569087684274
H      -0.394426852186555     -0.430979114021866     -0.030253681852741
Cl      0.463694359705073      0.499952238502544      1.987949789215293
6

C      -0.572997204647535     -1.344039649508801     -0.283125678008219
Cl     -0.391990630803519      1.798285566784031      1.627101849015617
H      -0.406560153139793     -2.123498893191893      0.388731304889831
H      -1.563093287733494     -1.473129045183853     -0.776571166513278
H      -0.471072582993401     -0.384379665379768      0.333249276523901
Cl      0.655531427900257     -1.229706839144143     -1.529622305197947
6

C      -0.552140191558323     -1.244905464144736     -0.285623472530858
Cl     -0.443414578897844      1.902159203310717      1.601795871264457
H      -0.603759706786903     -2.156662606735338      0.237641421217162
H      -1.533396764581184     -1.029306948987937     -0.791345943707597
H      -0.366144706874593     -0.376039606569265      0.416238689377153
Cl      0.701667990138333     -1.379082623185695     -1.501113527446520
6

C       0.762162253219628     -1.315352156932718      0.287272489560010
Cl     -1.699238357746665      0.747370153168021     -1.651209620705274
H       0.051162866442894     -0.812882477261667     -0.420678522329396
H       0.150091127623170     -2.047050857147951      0.787135128374985
H       1.669479122117792     -1.674331918864723     -0.195129590171192
Cl      1.387812975390247     -0.172779627576489      1.549005741887072
6

C       0.820583928896085     -1.388030798533762      0.333589159976839
Cl     -1.649137224897927      0.701058033163577     -1.608988854675545
H       0.278693896262212     -0.761970285565383     -0.416880948851770
H       0.276731819630669     -2.135426137718724      0.990508172033472
H       1.739010284287545     -1.690514183627840      0.009919460963729
Cl      1.305869945401383     -0.100317502473686      1.479370957408918
6

C      -1.428234312156533      0.148185503562814     -0.266964817794573
Cl      1.329519458413301     -0.408259378178201      1.894809984915938
H      -1.878741082470668      1.093908559345351     -0.033798887251734
H      -0.753153095564713     -0.178585967331344      0.534952865446925
H      -2.135440061447113     -0.635338368651503     -0.313013134271571
Cl     -0.710055558929255      0.350090684794779     -1.809707912818439
6

C       0.500478869212316      0.524394983125319      0.899633998298654
Cl     -0.757257460616671     -2.338801032757274     -0.822219616877874
H      -0.237856356863674      0.393184550193482      1.688835440713419
H       1.465509844601939      0.238764879142508      1.281022758271646
H       0.181314166955872     -0.157778990064628      0.067772808784795
Cl      0.547624425523821      2.147645265617527      0.431036654694552
6

C       1.006869198999837      0.571419716986483      0.985238895609058
Cl     -0.930192203927618     -2.232419302004530     -0.559607236403806
H       2.047096350024972      0.401768609586227      0.998605233116962
H       0.472745838864199     -0.264552323147782      0.523760483861537
H       0.720339913110450      0.700883229801903      2.006739408464924
Cl      0.496916900457876      2.014982728433424      0.125445252155345
6

C      -0.108119121009210      1.321772625831272      0.694678031011392
Cl     -1.629539702518926     -1.648796803311257     -1.085289277166069
H      -0.484216167140687      0.324717483962431      0.262266723084494
H      -0.322200138805172      2.106820570554106      0.005610233862470
H      -0.579009326482321      1.577674411357563      1.643016451423932
Cl      1.705565874590292      1.086960493735489      0.795586642860982
6

C       1.518861826432811     -0.494509115067956     -0.132218694575855
Cl     -1.662683289782464      0.385769476782841     -1.448657350783378
H       1.953949350463702     -1.487900588946999     -0.303833543443787
H       2.281806126922007      0.236611171178168     -0.388725510131962
H       0.599064355906620     -0.342068087800826     -0.738574648976680
Cl      1.010594494599317     -0.172916067849272      1.534148507700834
6

C       0.425024347150568     -0.436679243806779     -1.183449740531543
Cl      0.992997829672291      0.583288150142096      2.178800894252930
H       0.482274032921808      0.043565667173127     -0.158461623351613
H       1.038074048449957      0.026272833044928     -1.943977318479753
H       0.780374203364531     -1.417995133754729     -1.027761303939428
Cl     -1.202422244246080     -0.397000525770665     -1.688824683215927
6

C      -1.348943167317358     -0.270104686581902     -0.694170047879879
Cl      1.200943613451045     -0.832854242501440      1.935229611750174
H      -2.209486362080398      0.167974484650117     -0.216822290431324
H      -0.699484860429010     -0.414841694127702      0.193278498181570
H      -1.454280308941961     -1.232971921061946     -1.109030705460825
Cl     -0.619834616939002      0.966448184225527     -1.667830132518063
6

C      -0.063215072911888      1.273538104938396     -0.923808839539390
Cl     -0.653576225224143     -2.206893036209664     -0.146606842001589
H      -0.977798981725385      1.836042312867008     -0.953114136272248
H      -0.268746108185070      0.217627602250488     -0.797429375898574
H       0.532462187874245      1.506164925740705     -1.758673055872265
Cl      0.695298984208534      1.674177106787965      0.559389868018386
6

C      -0.154145648229274     -0.705122400520096     -1.363979451303635
Cl     -1.205385294567520      0.090779889966896      2.102220092847418
H      -0.065820633948817     -1.773195601769373     -1.115283787811748
H      -0.753381167502951     -0.482498446126812     -2.208617067661521
H      -0.626630661493024     -0.293779660502281     -0.453097976081011
Cl      1.298723588038044      0.220619112874047     -1.532686326646711
6

C       0.707409946410749     -1.052060081748550      0.339993173890448
Cl     -1.838196940144911      0.753482377931576     -1.813131258062498
H       0.105440021322366     -0.325182191834102     -0.215581737461605
H       0.094097373395130     -1.727235660399856      0.897564683616721
H       1.501922001317013     -1.517379742461941     -0.217430397104607
Cl      1.550135672513250     -0.295523291405900      1.684727111911812
6

C       1.678083003379996     -0.530054423805282     -0.217611549468060
Cl     -1.804956980596799      0.456894405569344     -1.183484162873569
H       0.879742467249116     -0.231404568146345     -0.984655067880638
H       1.955695554743386     -1.607171367719147     -0.361011864256398
H       2.588039163293132      0.059427944389768     -0.422615373888249
Cl      1.082183498047684     -0.226714860866053      1.307494342990225
6

C       0.475282964097403      0.214545333002789      1.422899349188597
Cl     -2.000533406943774      0.639546713249544     -1.590257641731739
H      -0.032955945074519     -0.264807364228119      2.222962903410931
H      -0.215395468625303      0.276780556823837      0.502397613232972
H       0.696760659431945      1.285430585033012      1.624754958601727
Cl      1.826750044419910     -0.749128857185966      0.984464680316989
6

C       0.689708614931703     -0.974624819242948      1.250556212578132
Cl     -0.219962625908295      2.234438402064470     -0.537392200070627
H       0.162375210044132     -1.098276054345703      2.153427632845037
H       0.730170665257120      0.062983039721843      0.958032407297026
H       1.703422398551979     -1.354086809638687      1.309064821962011
Cl     -0.087535997335422     -1.836280050392162     -0.012010331107859
6

C       1.029732408498489      0.749917603995442      0.527591375077236
Cl     -2.047548090692459      0.132532683677866     -1.742584522901183
H       0.909784025503185      1.626957384665715      1.095838059296412
H       0.034689985329905      0.538391849156170     -0.004787173613991
H       1.757094831904894      0.856322975280563     -0.260238733483305
Cl      1.621841536335452     -0.472535671784073      1.540204871124885
6

C       1.582542291068521      0.078305351085092      0.159438153791854
Cl     -2.037043453992013     -0.563284145086101      1.404910123284566
H       0.593785533706253     -0.004300958947979      0.730217937376580
H       2.242418811174957      0.790457290561804      0.667363048951898
H       2.086930042764237     -0.843262109055260      0.203010442405144
Cl      1.360867574703661      0.538376868690563     -1.504442078865864
6

C       0.755024481012043      0.050360975715137      1.199913306707373
Cl     -0.738735122086425     -1.742990718192402     -1.822304186544855
H       1.760778102837776     -0.028156376500760      0.963473469517282
H       0.081582120767663     -0.350742831609907      0.381847019579254
H       0.421148213555355     -0.451773702422713      2.049348876159371
Cl      0.418559789333386      1.749547350477414      1.319229843892060
6

C       1.407759048701010     -0.285028626706847     -0.104581845763107
Cl     -2.271022513126525     -0.227735574268635     -1.322651165951427
H       0.906800610505897     -1.280479197369033      0.015449841013051
H       2.318789953014516     -0.348827151044489     -0.670759752134799
H       0.674999813527592      0.293132179154043     -0.640011259750636
Cl      1.683141299191078      0.362300945156889      1.394916787663703
6

C      -0.022794750562312     -1.258263401413714      0.728087262514947
Cl     -1.077258121612346      1.042409092261579     -2.037134737313366
H      -0.944718536488594     -1.416223005291656      1.267252380184928
H       0.331845541076831     -2.105337511345709      0.205099613807548
H      -0.248403265171234     -0.613504703884161     -0.156948905042043
Cl      1.109471216666577     -0.498512125924051      1.753044965134848
6

C       0.250426894536204      1.384300872572950      0.421258175078520
Cl      0.963593896119519     -1.778461629528152     -1.748955423697495
H       0.439078666024074      0.462769440741397     -0.116230202044747
H       1.127659347531178      1.762008427252127      1.060319834696770
H      -0.018202431406479      2.080463077808758     -0.279333250947516
Cl     -1.092474045543526      1.187022400928910      1.587324778461195
6

C      -0.220005145050138     -0.046761052795361      1.684554783813510
Cl     -1.293139906663683      0.342769840481594     -1.974473571951563
H      -0.692820804159709      0.099372180886007      0.743311417475923
H      -0.348759581481133      0.823219248286335      2.389440697043625
H      -0.584157057178047     -0.943682592509106      2.276497405751670
Cl      1.413907893675216     -0.326326768612290      1.249911906935537
6

C       0.902255157300274     -1.359654867461416      0.410560743504078
Cl     -0.294240960102456      1.408004379938376     -1.922433629028134
H       0.629443727490823     -0.729050419753378     -0.460591886832049
H       0.635022982461791     -2.404184446687566      0.158110698660821
H       1.946011587164435     -1.232182185418750      0.682925467406690
Cl     -0.102744902177591     -0.823204520943918      1.772511684777115
6

C       0.005074557601958     -0.997985051795325      1.380216684440768
Cl     -1.460158818438387      0.501276298637080     -1.781083696713551
H      -0.836551525235478     -0.383949075077396      1.180341810450017
H       0.027975699939205     -1.439720350375168      2.334139388578265
H      -0.102592128527888     -1.712513327958149      0.616096242535846
Cl      1.484348008455243     -0.062594474305598      1.195994707773792
6

C      -1.005589697327196      0.075082984979403     -1.087732764422611
Cl      2.189896261612361      1.114484325078621      0.652711621090774
H      -0.913102790670166     -0.295436956495195     -2.097176998316669
H       0.036575875349811      0.411697320987855     -0.759401871241252
H      -1.699210376038110      0.942788093162349     -1.129068725340389
Cl     -1.775947572069768     -1.170037007106941     -0.170841634937403
6

C      -1.438307430232769      0.018170276877115      0.832626864104867
Cl      2.428867472909317     -0.268283471092090      0.440281969346913
H      -0.318430210925086     -0.109940774745141      0.909563213921032
H      -1.997583515372767     -0.854145668609959      1.140152962287146
H      -1.790132110623176      0.891354770135834      1.346730349297161
Cl     -1.824791152792528      0.264195187059187     -0.818964602985076
6

C      -1.078226374737511      0.693397238431672      1.237700166855689
Cl     -0.150417444657066     -1.167384830647521     -2.183486201124239
H      -1.452469359941205     -0.099421452639746      1.856287426876449
H      -1.181996676043767      0.321236425772099      0.173951264039374
H      -1.601709763847964      1.638204661657426      1.402264493758494
Cl      0.636190144042217      0.879562714352161      1.666533312146640
6

C       1.371714919672499      1.139735116194515      0.791234848609591
Cl     -1.647908776871319      0.035635420803970     -1.396932394265647
H       2.161028525598141      1.276337065736840      0.060938987912522
H       1.664228063109505      1.640811272055387      1.723561711584836
H       0.503765104096672      1.531493288597602      0.334438506731928
Cl      1.060057669211716     -0.548289560155510      1.068599178848729
6

C      -0.702383344528798     -1.266338726070742     -0.337152752854962
Cl     -0.535855121424390      2.168883977871758      1.172412836191668
H      -0.937450239446093     -2.053639060469436      0.400063433400661
H      -1.432187582720928     -1.200041152904802     -1.139309661097229
H      -0.651022750411215     -0.277339390512424      0.286169374233580
Cl      0.859724013054702     -1.639426652073354     -1.045297372642139
6

C      -1.240178859996135      0.164853514462408     -1.170018747147168
Cl      2.123352429359031      1.086661763553636      0.654721521711394
H      -0.904546234797010     -0.069660089852903     -2.232472613874791
H      -0.413255407097338      0.698546774507633     -0.754818018975584
H      -2.106571233705239      0.827316495912783     -1.149726148621269
Cl     -1.605790901967850     -1.183922930499236     -0.140667696952349
6

C       0.103033198405157      0.396431120773045      1.739117901524537
Cl     -1.551161182868242      0.259872890014520     -1.733945838344809
H      -0.155861906093421     -0.126019224840633      2.643731953846540
H      -0.578348017087094      0.490016007987052      0.845498522488384
H       0.384684128592852      1.432168705375219      2.034140279520912
Cl      1.526190527153162     -0.445262706771530      0.987652387368371
6

C       1.320066604803372      0.949513689644277     -0.726877641892258
Cl     -1.520764222827651      0.212257712035495      1.741411328153021
H       1.486056857894866      1.672508423196049     -1.491812325098437
H       2.137330209612529      0.906200201432583     -0.074200728989510
H       0.341615362062726      1.204046306686791     -0.293034974740436
Cl      0.960763025668271     -0.641527836071702     -1.442273168214356
6

C      -1.338528717848320     -0.265081672667307     -0.700693919367737
Cl      1.221316225883925     -0.838739648976841      1.933563739355336
H      -2.288103700907413      0.091556401411069     -0.290318563315310
H      -0.644474280392629     -0.444809203256781      0.156908203719979
H      -1.614374228316834     -1.222177675900909     -1.231471797887565
Cl     -0.638512382234552      0.973349801077703     -1.657348340758247
6

C       0.569225082735827      0.477838700460111      1.709404751984181
Cl     -1.718166578539908      0.370087387553468     -1.481796596693002
H       1.146377364542545      1.397325494312952      1.856949740628593
H       0.302203375786704      0.097194893833191      2.672483984654349
H      -0.363791882294251      0.704580846547756      1.153144130001053
Cl      1.494459113444293     -0.594516574458893      0.741043452709704
6

C      -1.602099937659787      0.193113170022500     -0.330982998071946
Cl      1.414383628158305     -0.396905233120108      1.970038756973423
H      -2.066943844190504      1.150718397325434     -0.098166309623679
H      -0.836046592841285     -0.013255181601465      0.472066659727673
H      -2.206271601529409     -0.668523694762769     -0.271690909534499
Cl     -0.726288889481225      0.318141528683753     -1.860802941070844
6

C      -1.131253506734268      1.377784376941406     -0.334872396890731
Cl      2.365971660463728     -0.392995134271345      0.243649515346164
H      -1.433990610552542      1.787715603261873     -1.307287453659598
H      -0.030519229150286      1.195769388142622     -0.379787750364997
H      -1.350764359166988      2.026552964548728      0.456733497830299
Cl     -1.902635066335506     -0.216276696787759     -0.095205600003496
6

C      -1.123087806154729      1.351729876988017     -0.320852028355333
Cl      2.263965232678217     -0.394752553882498      0.239399502101463
H      -1.788896269183127      1.982683962471697     -0.926227699899997
H      -0.112586363589074      1.300142157004586     -0.720108149611576
H      -1.048145958768174      1.850426136884224      0.616267042088509
Cl     -1.799575013778451     -0.209195142222242     -0.101400543837471
6

C       0.481183097848316      0.441317495234244      1.507048572605356
Cl     -1.828859879107512      0.440021291110710     -1.490403404819887
H       0.890693580608556      1.401030022768694      1.813241809073773
H       0.082857421405734     -0.118440728936363      2.322397773787714
H      -0.308530847774378      0.585951225294806      0.718729328491875
Cl      1.646918256999484     -0.642677236908710      0.841761253389492
6

C       1.838391157087301     -0.146822694045937     -0.028395253250807
Cl     -1.868224300241039     -0.767402020705489      1.258428115646240
H       1.102564287354767     -0.549315605782638      0.641066881881898
H       2.459775261743175      0.499422340951625      0.579016743360398
H       2.348951309606619     -1.009496571664343     -0.565273408378701
Cl      1.077265277015371      0.847270915864115     -1.267426516543352
6

C       0.879317862983726     -1.397635024570420     -1.014257149528802
Cl     -1.630198765325048      1.539970523327042     -0.266863642388543
H       0.622386274002807     -2.508031354004501     -1.002564694733422
H       1.826836946575398     -1.147775100255330     -1.538168631628267
H       0.072104673042887     -0.806214432081376     -1.325140520883792
Cl      1.260579996098897     -0.939555535074660      0.720433274575072
6

C       0.423958589886595      0.258829953154901      1.490413241573989
Cl     -1.874023733632669      0.584727307863503     -1.515997183979877
H      -0.014879392246698     -0.202292493355998      2.393270431304174
H      -0.226968271288044      0.474096746885607      0.597085809754674
H       0.881582074737253      1.192037284920886      1.782316131991564
Cl      1.712189631809792     -0.714046315990529      0.875314329351411
6

C       0.682190161713692      0.598448220340515      1.353155906648666
Cl     -0.778810061094475     -2.253744176141979     -0.869050143143738
H      -0.038042395975964      0.731437863003421      2.206610122008883
H       1.673817800141080      0.479795346359481      1.725456485394304
H       0.488958049610119     -0.282231973912673      0.801899684160375
Cl      0.487258090607853      2.024565196738749      0.275972749161980
6

C      -0.988538072155634      0.065624368798339     -1.055254309664548
Cl      2.140697615585253      1.087201073222388      0.637565627019626
H      -0.471127064764147     -0.220853423651903     -1.952966663152054
H      -0.056441416937560      0.427676426979787     -0.532509575800404
H      -1.514631972458787      1.050712611417438     -1.191741487459026
Cl     -1.747697084063262     -1.145192898139214     -0.175469858850306
6

C      -1.551292311709446      0.797360141314627      0.319150169098620
Cl      1.559488355883644     -0.306036279068209     -1.809069242795005
H      -2.625855393903848      0.588887679517086      0.245195292170749
H      -0.961635549510589      0.571571087333894     -0.580867731746423
H      -1.487992445975493      1.834871040339252      0.536930548202690
Cl     -0.889568490934508     -0.049291932581355      1.695213647462410
6

C       0.335717584491576     -1.244101963442631      1.148163736221520
Cl     -1.130162772291712      0.315415076804271     -2.085505097421432
H      -0.362322097260844     -1.541467776581015      1.876911807944950
H       1.183689534683737     -1.931729940765081      0.947809445396288
H      -0.157771013147098     -1.085280186862803      0.195761077442725
Cl      0.997547564872875      0.235723270455310      1.610604086837867
6

C       0.197949579471882     -0.207546982290680      1.486452298659700
Cl      1.011194465377457      1.479687296135751     -1.978493491155191
H       1.030505158314455     -0.597998247779600      2.081031876996235
H      -0.159663894718733      0.731084200545197      2.029695943641144
H       0.401203128317775      0.062825033995324      0.401374055366404
Cl     -1.114432635929958     -1.414937831265860      1.346561833885417
6

C       0.624563110359858     -1.477429026860804     -0.750008199277360
Cl     -1.832960310172112      0.780860878116968      0.925635170238621
H       1.188710019089953     -2.365900303525748     -0.406763083612177
H       0.310277162855414     -1.694472902958523     -1.792785972014755
H      -0.299842337580529     -1.387456513907580     -0.160219904294038
Cl      1.587251832833559     -0.125379569237467     -0.604422318528577
6

C       0.953369583412837     -0.544500493551709      1.142492098410315
Cl     -1.980694164517658      1.494703089546420     -0.141910903157211
H       0.899789865175777     -1.328143719256786      1.975507639480782
H      -0.040929365441528     -0.344203172422340      0.825036594757989
H       1.570696505125639      0.370359224025577      1.262478649908786
Cl      1.588594995906334     -1.273196770871024     -0.360712500544594
6

C       0.150526974374188     -0.184632508894026      1.402451999572506
Cl      1.001385253204077      1.438630133064493     -1.952879977280332
H       1.105235372907700     -0.603403840978501      1.569252572648537
H      -0.177784486554330      0.634487716412423      2.041785541309920
H       0.349925988896146      0.263313455334298      0.341371758320861
Cl     -1.088707548816458     -1.384444842375871      1.365323415415062
6

C      -1.399992110050192      0.166442615656820      0.351800193956265
Cl      2.389694270345231      1.062882745596454      0.436122794561541
H      -1.653335450197446     -0.008387444704766      1.436817158612357
H      -2.019016594382904      0.984587088711081     -0.034221234849383
H      -0.335149170602193      0.430235904891148      0.146635552049446
Cl     -1.801404666432219     -1.159267210757079     -0.599369549349348
6

C       0.751608697282037      0.770072200479390      0.647437412145422
Cl     -2.189363663834911     -0.103894573892276     -1.565220787277752
H       0.261393640337189      1.347658106828334      1.449400906236392
H       0.017694995301540      0.323902400709599     -0.006611154058064
H       1.246680227464225      1.529909879646112      0.028226421808682
Cl      1.891322843607483     -0.248049554464274      1.304031645933350
6

C      -1.079011306003622      0.646350803213636      0.655259749027181
Cl      0.476450367762368     -1.719178601508759     -1.955156676395092
H      -1.783451591444049      1.291694021129786      0.137741645208180
H      -1.484335114419395     -0.242426893061420      1.086207944884109
H      -0.501213996935988      0.154534218028246     -0.137764250374758
Cl     -0.003695572139463      1.465955717044309      1.702259647678588
6

C      -1.565669165223568      0.148564102082901      0.599779082543279
Cl      2.227248957040345      0.912164875373378      0.421473280763820
H      -1.904796993281394     -0.314026920571109      1.545426465848436
H      -2.175806359895788      1.059722727790884      0.432131925454556
H      -0.519934216511658      0.433860176764767      0.669567930762838
Cl     -1.565962801504497     -0.996040640168090     -0.699957057719288
6

C       0.899728559063192     -1.359901249778545      0.411688543764313
Cl     -0.295861848306998      1.398388298246402     -1.919963895490952
H       0.819614035097217     -0.677440839218420     -0.428257913776221
H       0.653978460453274     -2.385380781015442      0.160504819592020
H       1.885744914445269     -1.338300154893759      0.832797551628147
Cl     -0.104500685746132     -0.812489718262853      1.764410837317286
6

C       0.877272235416271     -1.454575413947893      0.373161447772191
Cl     -1.588749269520406      0.718004770506653     -1.526070076463640
H       0.298946601773693     -1.083067840724524     -0.535878527901417
H       0.336713341653294     -2.235197910637723      0.910088875085307
H       1.792074920636182     -1.838377396115661     -0.001071884260895
Cl      1.222484853087138     -0.078546333564873      1.389027319910213
6

C       0.626427448667854      0.688153393231758      1.306959441508511
Cl     -0.843005972383608     -2.241746320191268     -0.726968699739771
H       0.094741803227848     -0.176109212116202      0.890719597787069
H       0.195839755493651      1.065113954403188      2.233528127574175
H       1.699131040762339      0.298455765196167      1.442260198342339
Cl      0.574186497454718      1.974824723642627      0.154304952516839
6

C      -0.151171771062181     -1.244050990737747      0.898371783665766
Cl     -0.934501937742894      0.899159811456940     -2.235001211412524
H      -1.067702758397175     -1.385066608719768      1.475623246653527
H       0.192333493345501     -2.236151803380110      0.602813742764624
H      -0.283500119264446     -0.641247348352849      0.024553592119304
Cl      1.018673009156657     -0.356455666568749      1.870821860219309
6

C      -0.455700178741210     -0.368785498707538     -1.387170314832034
Cl      1.887015799119510     -0.518415642526762      1.535355028167544
H       0.233382354106269     -0.542103843058229     -0.433222877189735
H       0.158763162099703      0.039548239316304     -2.140119287869666
H      -0.934393040634831     -1.306830494578548     -1.696207175594580
Cl     -1.717199146045189      0.694814621711018     -0.943958458722491
6

C      -1.456376063270071     -0.575322430825011     -0.923135426469514
Cl      1.731324325390318      1.469309455464227     -0.289505878012818
H      -0.679245918902595      0.210988410193465     -1.032860598184016
H      -2.400418083018309     -0.116637988149648     -0.993770038683806
H      -1.380505908143107     -1.360108476120203     -1.655297140778444
Cl     -1.111059609867581     -1.238390362794334      0.706971683575375
6

C       0.820207759652064      1.160490024872828      0.681932697853853
Cl     -1.377550766599654     -2.112457023304742      0.663492510506671
H       0.655869892632808      2.050178850752928      1.203085633698805
H       1.593635898767928      0.514881935836542      1.115645505334442
H      -0.111778518624860      0.475507156852657      0.730017027919487
Cl      1.038866859910257      1.632808555724012     -0.981231065829974
6

C       0.474794225760860      0.191416492613442      1.398693411329035
Cl     -2.051106331886757      0.652667901125142     -1.631319877211297
H      -0.046964399418556     -0.309417816861057      2.211117045044858
H      -0.156998546673663      0.273637805969472      0.490312690784549
H       0.866861308935853      1.200796093886623      1.674363410295314
Cl      1.871389688858216     -0.750649275016229      1.032998126724223
6

C       1.627065801123692     -0.713587364822288     -0.147666924374704
Cl     -1.952954180759136      0.577882336261652     -1.357754756419155
H       2.448264595449658     -0.123794932328082     -0.502514979159045
H       0.786482504117501     -0.428177777061080     -0.767908563763100
H       1.705140944630273     -1.771184568215219     -0.263167805925306
Cl      1.261216677632248     -0.270050449810128      1.451393332111707
6

C      -0.314666639604511     -0.403374925123686      1.626281320877908
Cl     -1.163606725243383      0.724619303362829     -2.116180897188528
H      -0.600660044152960     -1.432357271914611      1.579015854222902
H      -0.662003529081531      0.239677401440460      0.750011043240505
H      -0.598998894247799     -0.011789665779574      2.585809351989624
Cl      1.323155858544155     -0.553701347983292      1.425421521038615
6

C      -0.779876493352106     -0.943355481391691     -1.313390043518652
Cl      2.078920912520061      0.806491484712964      0.700015640090641
H      -0.766559015420583     -2.017944348896833     -1.249167881293459
H       0.269507721773095     -0.717971205756143     -1.081320849805039
H      -1.047671088505339     -0.619517392654444     -2.262833226566400
Cl     -1.770763600168550     -0.391458505929279     -0.124410665590503
6

C      -1.042790421193573      0.705057839539535      1.274485047570266
Cl     -0.082964962160403     -1.139237778381485     -2.130998929070216
H      -1.708750488851749      0.447884304298043      2.113200666729938
H      -1.190533423417051     -0.065024207394003      0.428596309755335
H      -1.414915312924336      1.652807263895440      0.898447413836976
Cl      0.558949971129394      0.842470432531101      1.601362645521220
6

C       1.203124154373199      0.457592924821654      1.843394674180402
Cl     -1.271242093616735     -0.045710496372948     -1.258903927805349
H       2.264030790553790      0.234860204829999      2.107253134607205
H       0.578193423825212      0.084470829598715      2.673053316881450
H       1.105583947219728      1.556064302592574      1.854222492561007
Cl      0.751351688960369     -0.162654725622843      0.445684785148600
6

C       1.101334255109151      0.682722452558025      1.086188599377138
Cl     -0.994831206862116     -2.240552545902602     -0.627483076567501
H       1.920266315705859      0.188633441935281      0.630852608930596
H       0.334709798114005     -0.075515193118761      1.210215841351470
H       1.307904175163614      1.048381748864315      2.035508774178169
Cl      0.520373969361060      1.976209206682924      0.149237629194445
6

C       0.331339112453733     -0.408530933929882      1.907299910714713
Cl      0.698255399517777      1.286389759670072     -1.730517311623217
H       0.809816855734979     -1.180915474639164      2.453835088587255
H       0.013268589804454      0.223288968577577      2.689057024924509
H       0.984635543046892      0.129192883718233      1.235758625951490
Cl     -0.861919626208191     -1.124417231073366      0.902921848351795
6

C       0.628745892731132     -0.979299075499867      1.284482116221909
Cl     -0.219152258857918      2.401584633459692     -0.673217800707036
H       0.305928292786518     -1.218041319772382      2.239384618014114
H       0.482477918733736      0.112265522051885      1.060571181927926
H       1.699898466242189     -1.193029943272151      1.309971498488153
Cl     -0.064629914140028     -2.004417993607788      0.106935109176462
6

C       0.576361815853787      0.272267445688627      1.812172277591401
Cl     -1.717875243605334      0.517072507893587     -1.448626098808077
H       0.159182109932232     -0.306251723835572      2.651376291985969
H      -0.232292802488303      0.700151371820255      1.254276014630548
H       1.177564514957254      1.063210101896360      2.199599536418077
Cl      1.491190582866281     -0.650752928712919      0.661035264282503
6

C      -0.337478793752084     -0.350369237012046      1.680196520163875
Cl     -1.094332319128668      0.685771933443576     -2.133200730701375
H      -0.797892078823736     -1.077523035004191      2.373678915066691
H      -0.856389949211973     -0.360567942193995      0.761772041255469
H      -0.625947594974917      0.628596298374461      2.087468441059158
Cl      1.273512269812755     -0.544043991496949      1.415413899777548
6

C      -1.635226316399837     -0.028077723237686      0.600625036695916
Cl      2.090221243104949      1.297614819101881     -0.009471274816164
H      -1.975069687367821     -0.269542674266987      1.697992333364255
H      -2.373237884065247      0.645177659628345      0.208805836452868
H      -0.693940763321621      0.490162541751914      0.799312533818011
Cl     -1.392808278148394     -1.312720104673815     -0.270976310656863
6

C       0.177401665242982      0.404246766887027      1.867402000245761
Cl     -1.485772506077808      0.205463190504915     -1.797317251914606
H      -0.294435615421037     -0.386924799357274      2.470482102488489
H      -0.507518493600912      0.782223903411037      1.135018968496468
H       0.592604763279027      1.195789860566848      2.481911648175853
Cl      1.431618845690608     -0.387669836299494      0.991520991100302
6

C       0.159678630526827      0.403976154499730      1.843140116410581
Cl     -1.510168353655772      0.217744299624073     -1.792758448047650
H      -0.325403739827735     -0.275703267308046      2.590785439144000
H      -0.581481366957632      0.706885068288685      1.123958630352675
H       0.636259076726091      1.195074799715513      2.397269492760287
Cl      1.463761894051885     -0.400859228966809      0.994482972477456
6

C       1.173661887503201     -0.797825046251589      1.274188359937739
Cl     -1.935990486787887      1.292388326725089     -0.132811186260497
H       0.819372696430506     -1.806697592082287      1.561469749221473
H       0.360917531609971     -0.039745458372408      1.395433094784593
H       2.116758475671773     -0.518040939688476      1.696229803430754
Cl      1.444586311212603     -0.954840329754930     -0.431212342648607
6

C      -0.590157706098168     -0.629179055639042     -1.341643841368921
Cl      1.746066145758334     -0.480979470139573      1.937878155828287
H      -1.226698964430284     -1.472206720342740     -1.302909566102386
H       0.171204023734063     -0.622282873406007     -0.537988499161202
H      -0.098677932614976     -0.821913990921885     -2.300074128843974
Cl     -1.513293495145021      0.777081147167166     -1.365562664986498
6

C      -0.321162505486086     -0.398592931238468      1.620797283229834
Cl     -1.163685018998521      0.719214775690730     -2.108345029308282
H      -0.764326019215829     -1.416704727959569      1.546371059466054
H      -0.661942389758366      0.240927560460179      0.853044976280245
H      -0.659135141316924      0.016392298392176      2.590718563768903
Cl      1.331796997336639     -0.551198988803108      1.417302664140891
6

C      -1.875374924965485     -0.323716262666565     -0.071422986443309
Cl      1.638350081202205      1.581779574866857      0.244627287115094
H      -1.648044310719513      0.591820533638852      0.466702692816426
H      -2.821131571633046     -0.650081595703824      0.407537746296455
H      -2.089928958876314      0.177749946008404     -1.063255734214820
Cl     -0.816440182648748     -1.475497170469879     -0.215053552061974
6

C       1.151856627309357      0.867823523431881      0.637859693340616
Cl     -2.008071700401942      0.211863620731691     -1.689530683304596
H       1.265515472311776      1.614462703811597      1.413174210767423
H       0.170507033650949      0.822392998925849      0.166846615512441
H       1.824690220449042      1.071315438547799     -0.245687142503982
Cl      1.525088671379763     -0.605648242744550      1.435473105590631
6

C      -0.663232961320475     -1.456668625487865     -0.725476136927824
Cl      1.281196774205725      0.809811873517091      1.945955466654581
H      -1.450952425038324     -1.467758258164253      0.011342960287394
H       0.324367476536040     -1.302899535241863     -0.212624667418297
H      -0.626018078816045     -2.371129676674940     -1.327129052816986
Cl     -1.006649102838836     -0.170066637111546     -1.656693635154824
6

C       1.646295185023604      0.094742368654067      0.149308397674702
Cl     -2.091231864264003     -0.558246370622328      1.413616262992775
H       0.724408724916984     -0.074459113119474      0.653534135555830
H       2.171027854307638      0.921493447748745      0.622269385566639
H       2.054700017501688     -0.925271578393406      0.230701737721532
Cl      1.392687741363602      0.528370843169824     -1.507040817728623
6

C      -0.392911733819702      1.629721666270541      0.604755559171124
Cl     -0.962139983858876     -2.276925676831809     -0.205824849748382
H      -1.018267014235320      2.382880336683229      0.237830555331087
H      -0.294932838642865      1.713778185178285      1.611992751018320
H      -0.897133245421671      0.671061202816645      0.342871860885055
Cl      1.158113992264958      1.589183831527109     -0.061423549399109
6

C      -1.178383731834458     -0.945308888322302     -0.655536940117585
Cl      0.378052858784585      1.949728686163184      1.671857768193391
H      -1.492286281990985     -0.112659564268952     -1.287683846284509
H      -0.938858026931385     -0.649581443695027      0.344806834934886
H      -2.005084944356028     -1.675134860229349     -0.605629344406879
Cl      0.147343081705358     -1.560138279032657     -1.405720995433057
6

C      -1.342615718072764      0.169146116167013     -1.242780683305796
Cl      2.010067046489567      1.001797747424803      0.669030279155251
H      -1.463460308361348     -0.144769051867172     -2.222071969161220
H      -0.397235705578410      0.639741989073784     -1.075054910621986
H      -2.213906338506831      0.829983810777705     -0.982305626820207
Cl     -1.439309456615462     -1.096781397728066     -0.126274094279566
6

C      -0.948055518416382     -1.289598619953964     -0.812353019914596
Cl     -0.143499838688172      2.280156962171034      0.879837758316270
H      -1.294781184966979     -1.433728313885425     -1.844560041587116
H      -1.155880006416723     -0.253669047408536     -0.597146949553817
H      -1.653266040103986     -1.781199027052679     -0.069149072588729
Cl      0.581408258463554     -1.744593797609085     -0.533205458332219
6

C       0.844781560196822      1.165867493409891      0.653052525178822
Cl     -1.402243231994262     -2.150643491108411      0.643490839839345
H       0.153896738238544      1.689137846542792      1.254252743357767
H       1.806273524137509      1.315831646175795      1.171639981329179
H       0.439207259115094      0.139070323591682      0.680555201014798
Cl      1.047793475684330      1.666230893134113     -0.953085011603250
6

C      -0.305945154894744     -1.533687188909425     -0.735977581610470
Cl      0.778423177325848      1.050562536666959      2.142643423574285
H      -1.143512393910200     -2.130141080042620     -0.412632876070518
H       0.145320819802393     -1.005808164753077      0.148354662457052
H       0.516195410546374     -2.220489829843700     -1.059207086567952
Cl     -0.661059019686661     -0.378618745038523     -1.855650478149542
6

C      -0.156668132922320     -0.063498823875008      1.663471531348151
Cl     -1.344144647963304      0.357072406291763     -2.113378941032835
H      -0.741875058839312      0.020564185218106      0.668503169267993
H      -0.341725499223941      0.956896244732533      2.092416990857416
H      -0.645097243550723     -0.789713370068128      2.286415149986126
Cl      1.446380708007226     -0.340896515256489      1.406251421833488
6

C       0.844077644796243      0.479964290252283      1.478823165739172
Cl     -1.889052163285328      0.595727097680935     -1.352235635927840
H      -0.201212462582859      0.533585001631138      1.222661141571578
H       1.377205826467375      1.364795146423191      1.028804408934903
H       0.976633982422740      0.443790650196632      2.580367371081806
Cl      1.541857101036385     -0.824944566083133      0.713797479971433
6

C      -0.506772142152798     -0.922771928381863     -1.188271379966508
Cl      2.167628641763656      1.213176229474058      0.870449176410190
H      -0.095297877211436     -1.903564538024781     -1.044243374023381
H       0.168553457902277     -0.271303035348936     -0.632121478284091
H      -0.464387294715351     -0.659830190986355     -2.206535919891934
Cl     -1.984804919136465     -0.819924072118084     -0.357436721596258
6

C       0.151605740660173      0.402067009522057      1.811802038237261
Cl     -1.558135614691352      0.240648913151219     -1.822764936368145
H      -0.195020529225019     -0.332377240926633      2.607249077304303
H      -0.561657084661420      0.438414197371245      0.992112302491833
H       0.439766155090666      1.404935927025335      2.081816610940649
Cl      1.515780472220143     -0.419838970073855      1.047357836341888
6

C       0.513038215709656      0.090276757373999      1.110995448333568
Cl     -2.149543896992142      0.671272409578606     -1.762951953245448
H      -0.281824050797013     -0.340455848436207      1.744431789983764
H       0.006755471842993     -0.028251224526983      0.112307851811465
H       0.569486828479839      1.144062223941503      1.365412324306064
Cl      1.967347123948116     -0.723906320015985      1.294909766735870
6

C       1.204104329048775      0.903803253915285      0.655977848166756
Cl     -1.961104737754297      0.162753195899214     -1.629115216823308
H       0.716810737122401      1.628032962435270      1.352825621837198
H       0.538662030338230      0.726851222392227     -0.268780334613638
H       2.112013915861624      1.374234397830037      0.244368016153331
Cl      1.457383336541483     -0.575010809837039      1.369087274816664
6

C       0.212196569085989     -0.260573787572199      1.576267203904763
Cl      0.929513775226582      1.427915898303993     -1.927088864384004
H       1.004121239470194     -0.885766689056609      2.033895833365094
H      -0.012339742004372      0.509298523773779      2.385343809128088
H       0.436883098803762      0.199479055022167      0.600601688718214
Cl     -1.042032446716931     -1.334596948073468      1.250289274878753
6

C       0.980390884807861     -0.778664091084593     -0.067139363500672
Cl     -2.364792596602044      0.967565623325399     -1.239021952147127
H       0.930400894009495     -1.800762975082108     -0.470628148512233
H       1.435314226634333     -0.082751795198178     -0.777999718880935
H      -0.110813455646365     -0.464571456588502     -0.052666714688854
Cl      1.968504421827902     -0.636975910639919      1.298771340969225
6

C      -0.568066699752421     -0.721090058257204      1.349565947535936
Cl     -0.303228055857133      0.153376953841359     -2.592636899392517
H      -1.476323032471797     -0.401848243838131      1.705420646205198
H      -0.536099728915218     -1.730493730663824      1.548161629801072
H      -0.387646875146572     -0.611359600957272      0.275660198952721
Cl      0.563942282214043      0.168954890384043      2.035031454805392
6

C      -1.521000456122110      0.285062914486957     -0.859200693290731
Cl      1.401730315955731      0.937965261273376      1.783623045672343
H      -1.240777392969420      1.186463103229698     -1.344498809834377
H      -1.330534078022012      0.522068549846693      0.246494872435107
H      -2.603819400399232      0.187395909797260     -1.006623696508427
Cl     -0.739240375283103     -1.088458509490067     -1.432668907954650
6

C      -1.013539561976927     -1.306145818332851     -0.793208428584478
Cl     -0.182475744181673      2.204056006846784      0.934034413533197
H      -1.246387107599318     -0.906115875268384     -1.766519658271037
H      -1.261605552914830     -0.488592870648247     -0.057249750688726
H      -1.676751876926190     -2.106080716905382     -0.646944526784964
Cl      0.644869148205501     -1.661971008186114     -0.595030010628918
6

C       1.864605223289956     -0.140592553274402     -0.037987227037434
Cl     -1.876331537455670     -0.754074262972210      1.247961913013626
H       1.021064599448010     -0.621607329492406      0.539006452376867
H       2.442011484048905      0.484740598303844      0.619168321976943
H       2.431318587847116     -0.954989849372666     -0.473254492938565
Cl      1.076971222486662      0.832755464399142     -1.254566569141090
6

C       1.190098580697537      0.480468774629770      1.872649597408540
Cl     -1.303793022833375     -0.005673986856337     -1.206922734550531
H       2.195974998256844      0.110513578173780      2.205870119499707
H       0.484899454460702      0.187231683345317      2.632691316737578
H       1.186040702163737      1.558448573940780      1.848943397348208
Cl      0.790616026249992     -0.209895938058253      0.382285239861389
6

C       0.189588274135488      0.396054924169889      1.861117159621557
Cl     -1.452410193685182      0.200214608924270     -1.797756468600781
H      -0.226519365613100     -0.316080996476259      2.580728125292694
H      -0.676991159492104      0.640841723332628      1.203296697233910
H       0.661416118842524      1.209426698438833      2.440504462619600
Cl      1.395058611199175     -0.378027771657742      0.990190778230073
6

C      -0.071706110625300     -1.475598053182580     -1.096886735295399
Cl      1.094862826584944      0.912014147673929      1.915843867830887
H      -0.500038797511039     -2.425355724797953     -0.848023035625246
H       0.526729492128894     -1.102258857931446     -0.201763686219905
H       0.709170260978382     -1.592999671824984     -1.888940553393155
Cl     -1.091491479575680     -0.266457380808902     -1.460640943400080
6

C      -1.138761853329555      1.282478125772741     -0.778497722750686
Cl      2.313205639258697     -0.687602439560592     -0.038971441132219
H      -1.545780579403271      1.138778038818486     -1.787501403436977
H      -0.052996120358443      1.051740284536478     -0.782518843571225
H      -1.315922154533226      2.281208306585469     -0.395843955434216
Cl     -1.844498021050796      0.125928385635703      0.387070940822483
6

C      -0.008907745403889     -0.212533859026507      1.932531529036112
Cl     -1.313763378710348      0.588931681147201     -1.747385665558994
H      -0.920370243398068     -0.177631183972736      1.328403128746345
H       0.052573555834257      0.766708251659168      2.422567311259769
H      -0.066725050678642     -1.060571183388276      2.616039451017997
Cl      1.343354037164389     -0.503515313040168      0.911572346365617
6

C       0.551576715167968      0.252485573017935      1.707318273973414
Cl     -1.816604834229054      0.560437902189761     -1.511314867457045
H       0.227966196920377     -0.311727836559200      2.570154725124766
H      -0.353016776540883      0.340475068769308      1.109573860546419
H       1.050123124032297      1.208960020908933      1.967197906404294
Cl      1.603418344788992     -0.681177341644258      0.772282379651486
6

C      -1.571219196678470      0.666922292089382      0.736505440829831
Cl      2.236109130859163      0.563366619804412     -0.519431229459471
H      -1.916115407966302      0.747373489587815      1.767455819088411
H      -2.100263162126268      1.306217038583966      0.139573576751360
H      -0.514719560430123      1.033785566755284      0.740827167975368
Cl     -1.574917009931909     -0.877117783527154      0.194601715605231
6

C      -0.777921670331736     -1.578731109900687     -0.536574809722680
Cl      0.145626820465552      1.470728858923891      1.883846602522482
H      -1.765488547837180     -1.848277898437246     -1.015615824946622
H      -0.873085763855343     -0.749800540392258      0.217723103749151
H      -0.175663787611242     -2.397688758273191     -0.192596313675963
Cl      0.197966104399114     -0.793778994447266     -1.673882907551246
6

C      -0.355996895501789     -0.339110476519025      1.671665469476181
Cl     -1.094041629290601      0.672314714193703     -2.105726185560130
H      -0.792865167626573     -1.143682463537331      2.272086961553526
H      -0.789462317877494     -0.238303871491652      0.740372457990276
H      -0.412476926850374      0.630930744827538      2.137373205717921
Cl      1.271379896131890     -0.536063093082475      1.392907984145651
6

C      -0.136579768449920     -0.073438444067634      1.724049060625504
Cl     -1.357876190574999      0.363953634462192     -2.070647398514296
H      -0.680078069921763     -0.179924413887491      0.698408529153653
H      -0.353969448599926      0.918537401013054      2.119846330227730
H      -0.508902481159367     -0.777132128624061      2.525921387938865
Cl      1.448024376711246     -0.337976301702639      1.334554791335961
6

C       0.987620375444891      0.040196999146346      1.518232887569681
Cl     -0.712392756674191     -1.567652576801564     -1.732164202674895
H       2.083635734735296      0.048503796085768      1.677609273670697
H       0.756772066147278     -0.618697920687538      0.656912588282111
H       0.499433152244549     -0.327250032413019      2.435986073231788
Cl      0.282805506738470      1.579551520483520      1.082117172737910
6

C       1.309098175185397      0.880315529000768     -0.810053150469713
Cl     -1.708897443340462      0.243111950932047      1.730909781338582
H       0.817995671080055      1.575632781992127     -1.514981267999815
H       2.372149845369549      1.160670264941416     -0.856252800890090
H       0.789106809955754      0.926493183298078      0.194810237140686
Cl      1.152207329739056     -0.645525728616136     -1.394566096918439
