9
Lattice="10.0 0.0 0.0 0.0 10.0 0.0 0.0 0.0 10.0" Properties=species:S:1:pos:R:3:move_mask:L:1:forces:R:3:energies:R:1 energy=-7274.573544128711 stress="-5.353164387185516e-07 1.8440914389986235e-07 0.0 1.8440914389986235e-07 2.954780946305541e-07 0.0 0.0 0.0 0.0" free_energy=-7274.573544128711 pbc="F F F"
C       -1.24357310       0.78863898       0.00000000  T       0.08530952      -0.10788814       0.00000000   -1037.71956583
C        0.00000000       0.05900000       0.00000000  F      -0.08548690       0.47980068       0.00000000   -1037.45277398
C        1.15459703       0.77508343       0.00000000  T       0.03612763      -0.19418173       0.00000000   -1037.54459966
O       -1.31949052       2.01888578       0.00000000  T      -0.03053253      -0.05326533       0.00000000   -2048.03041389
O        1.22169470       2.08814672       0.00000000  T       0.03081898      -0.08815449       0.00000000   -2048.18712990
H        0.28031328       2.40155321       0.00000000  T      -0.07563726       0.13420630       0.00000000     -16.49488229
H       -2.17148795       0.20696077       0.00000000  T      -0.07518966      -0.06385170       0.00000000     -16.33023460
H        0.00538829      -1.01693866       0.00000000  T       0.03302252      -0.03042541       0.00000000     -16.44574349
H        2.12571578       0.29956802       0.00000000  T       0.08156769      -0.07624019       0.00000000     -16.36820048
9
Lattice="10.0 0.0 0.0 0.0 10.0 0.0 0.0 0.0 10.0" Properties=species:S:1:pos:R:3:move_mask:L:1:forces:R:3:energies:R:1 energy=-7274.559191328451 stress="-1.8086873191875205e-07 -5.020912454958697e-07 0.0 -5.020912454958697e-07 2.1914593788055166e-07 0.0 0.0 0.0 0.0" free_energy=-7274.559191328451 pbc="F F F"
C       -1.23468509       0.80001412       0.00000000  T      -0.02881332      -0.05137406       0.00000000   -1037.72005542
C        0.00000000       0.05900000       0.00000000  F      -0.17204707       0.32163406       0.00000000   -1037.46420105
C        1.15601272       0.77667195       0.00000000  T      -0.00585378      -0.02762745       0.00000000   -1037.56090207
O       -1.29573876       2.03410231       0.00000000  T      -0.10462495      -0.04627082       0.00000000   -2048.02901461
O        1.19439423       2.08799322       0.00000000  T       0.09631802      -0.01435066       0.00000000   -2048.17119228
H        0.23379214       2.38688236       0.00000000  T       0.16837491       0.04099622       0.00000000     -16.46135594
H       -2.18299271       0.25084588       0.00000000  T       0.04944548      -0.16270704       0.00000000     -16.33332062
H       -0.00548185      -1.01784781       0.00000000  T       0.04434484       0.00249786       0.00000000     -16.44871650
H        2.13820506       0.31629794       0.00000000  T      -0.04714413      -0.06279811       0.00000000     -16.37043282
9
Lattice="10.0 0.0 0.0 0.0 10.0 0.0 0.0 0.0 10.0" Properties=species:S:1:pos:R:3:move_mask:L:1:forces:R:3:energies:R:1 energy=-7274.5004803373295 stress="-1.7207490203930176e-06 -1.353951443742123e-06 0.0 -1.353951443742123e-06 -1.9531389047266725e-07 0.0 0.0 0.0 0.0" free_energy=-7274.5004803373295 pbc="F F F"
C       -1.21078247       0.81559126       0.00000000  T      -0.17712352      -0.06372073       0.00000000   -1037.72221113
C        0.00000000       0.05900000       0.00000000  F       0.01813854       0.27370294       0.00000000   -1037.48196840
C        1.15846296       0.78499363       0.00000000  T      -0.05053409      -0.05677678       0.00000000   -1037.57984375
O       -1.25392501       2.05738662       0.00000000  T      -0.31456106      -0.13275316       0.00000000   -2048.04885087
O        1.16107757       2.08664694       0.00000000  T       0.17636167       0.02663072       0.00000000   -2048.14230829
H        0.15778686       2.34411944       0.00000000  T       0.54499918       0.20611816       0.00000000     -16.36007062
H       -2.16591898       0.29262152       0.00000000  T      -0.12291775      -0.25241943       0.00000000     -16.34218746
H       -0.00261453      -1.01765851       0.00000000  T      -0.02680406      -0.00225536       0.00000000     -16.45093306
H        2.14288968       0.32499288       0.00000000  T      -0.04755892       0.00147365       0.00000000     -16.37210675
9
Lattice="10.0 0.0 0.0 0.0 10.0 0.0 0.0 0.0 10.0" Properties=species:S:1:pos:R:3:move_mask:L:1:forces:R:3:energies:R:1 energy=-7274.235578606843 stress="-7.702830007393363e-07 -6.766906305495464e-07 0.0 -6.766906305495464e-07 -2.3040091215726927e-07 0.0 0.0 0.0 0.0" free_energy=-7274.235578606843 pbc="F F F"
C       -1.18071045       0.80716693       0.00000000  T      -0.19410887       0.12836864       0.00000000   -1037.63023086
C        0.00000000       0.05900000       0.00000000  F       0.27167750      -0.04122543       0.00000000   -1037.47579891
C        1.17444160       0.80223993       0.00000000  T      -0.15532533      -0.16023503       0.00000000   -1037.57119172
O       -1.17661052       2.06738051       0.00000000  T      -0.68813317      -0.17224709       0.00000000   -2048.14737366
O        1.15409683       2.07527538       0.00000000  T      -0.44326382       0.20729252       0.00000000   -2048.13156446
H        0.02396160       2.33060713       0.00000000  T       1.29041981       0.03619164       0.00000000     -16.08960135
H       -2.15480707       0.31588408       0.00000000  T      -0.05036314      -0.06537458       0.00000000     -16.36628494
H       -0.00030120      -1.01801191       0.00000000  T      -0.01250176      -0.00090356       0.00000000     -16.45153134
H        2.15396284       0.31798109       0.00000000  T      -0.01840122       0.06813290       0.00000000     -16.37200137
9
Lattice="10.0 0.0 0.0 0.0 10.0 0.0 0.0 0.0 10.0" Properties=species:S:1:pos:R:3:move_mask:L:1:forces:R:3:energies:R:1 energy=-7274.209966567651 stress="-2.4660581222161295e-07 1.2450071401823834e-21 0.0 1.2450071401823834e-21 -1.1220211490275294e-07 0.0 0.0 0.0 0.0" free_energy=-7274.209966567651 pbc="F F F"
C       -1.17757447       0.80488958       0.00000000  T      -0.01006013      -0.00045735       0.00000000   -1037.59225795
C        0.00000000       0.05900000       0.00000000  F       0.00000000      -0.03504891       0.00000000   -1037.47345360
C        1.17757447       0.80488958       0.00000000  T       0.01006013      -0.00045735       0.00000000   -1037.59225795
O       -1.16441208       2.07121586       0.00000000  T      -0.00540672       0.00068193       0.00000000   -2048.14442288
O        1.16441208       2.07121586       0.00000000  T       0.00540672       0.00068193       0.00000000   -2048.14442288
H       -0.00000000       2.33042994       0.00000000  T      -0.00000000       0.02611330       0.00000000     -16.07215667
H       -2.15440247       0.31696677       0.00000000  T      -0.02461348       0.00469131       0.00000000     -16.36971358
H        0.00000000      -1.01799600       0.00000000  T       0.00000000      -0.00089618       0.00000000     -16.45156749
H        2.15440247       0.31696677       0.00000000  T       0.02461348       0.00469131       0.00000000     -16.36971358
9
Lattice="10.0 0.0 0.0 0.0 10.0 0.0 0.0 0.0 10.0" Properties=species:S:1:pos:R:3:move_mask:L:1:forces:R:3:energies:R:1 energy=-7274.235578606843 stress="-7.702830007393365e-07 6.766906305495445e-07 0.0 6.766906305495445e-07 -2.3040091215726445e-07 0.0 0.0 0.0 0.0" free_energy=-7274.235578606843 pbc="F F F"
C       -1.17444160       0.80223993       0.00000000  T       0.15532533      -0.16023503       0.00000000   -1037.57119172
C        0.00000000       0.05900000       0.00000000  F      -0.27167750      -0.04122543       0.00000000   -1037.47579891
C        1.18071045       0.80716693       0.00000000  T       0.19410887       0.12836864       0.00000000   -1037.63023086
O       -1.15409683       2.07527538       0.00000000  T       0.44326382       0.20729252       0.00000000   -2048.13156446
O        1.17661052       2.06738051       0.00000000  T       0.68813317      -0.17224709       0.00000000   -2048.14737366
H       -0.02396160       2.33060713       0.00000000  T      -1.29041981       0.03619164       0.00000000     -16.08960135
H       -2.15396284       0.31798109       0.00000000  T       0.01840122       0.06813290       0.00000000     -16.37200137
H        0.00030120      -1.01801191       0.00000000  T       0.01250176      -0.00090356       0.00000000     -16.45153134
H        2.15480707       0.31588408       0.00000000  T       0.05036314      -0.06537458       0.00000000     -16.36628494
9
Lattice="10.0 0.0 0.0 0.0 10.0 0.0 0.0 0.0 10.0" Properties=species:S:1:pos:R:3:move_mask:L:1:forces:R:3:energies:R:1 energy=-7274.5004803373295 stress="-1.7207490203929983e-06 1.3539514437421243e-06 0.0 1.3539514437421243e-06 -1.953138904726107e-07 0.0 0.0 0.0 0.0" free_energy=-7274.5004803373295 pbc="F F F"
C       -1.15846296       0.78499363       0.00000000  T       0.05053409      -0.05677678       0.00000000   -1037.57984375
C        0.00000000       0.05900000       0.00000000  F      -0.01813854       0.27370294       0.00000000   -1037.48196840
C        1.21078247       0.81559126       0.00000000  T       0.17712352      -0.06372073       0.00000000   -1037.72221113
O       -1.16107757       2.08664694       0.00000000  T      -0.17636167       0.02663072       0.00000000   -2048.14230829
O        1.25392501       2.05738662       0.00000000  T       0.31456106      -0.13275316       0.00000000   -2048.04885087
H       -0.15778686       2.34411944       0.00000000  T      -0.54499918       0.20611816       0.00000000     -16.36007062
H       -2.14288968       0.32499288       0.00000000  T       0.04755892       0.00147365       0.00000000     -16.37210675
H        0.00261453      -1.01765851       0.00000000  T       0.02680406      -0.00225536       0.00000000     -16.45093306
H        2.16591898       0.29262152       0.00000000  T       0.12291775      -0.25241943       0.00000000     -16.34218746
9
Lattice="10.0 0.0 0.0 0.0 10.0 0.0 0.0 0.0 10.0" Properties=species:S:1:pos:R:3:move_mask:L:1:forces:R:3:energies:R:1 energy=-7274.559191328451 stress="-1.8086873191878316e-07 5.020912454958674e-07 0.0 5.020912454958674e-07 2.1914593788060807e-07 0.0 0.0 0.0 0.0" free_energy=-7274.559191328451 pbc="F F F"
C       -1.15601272       0.77667195       0.00000000  T       0.00585378      -0.02762745       0.00000000   -1037.56090207
C        0.00000000       0.05900000       0.00000000  F       0.17204707       0.32163406       0.00000000   -1037.46420105
C        1.23468509       0.80001412       0.00000000  T       0.02881332      -0.05137406       0.00000000   -1037.72005542
O       -1.19439423       2.08799322       0.00000000  T      -0.09631802      -0.01435066       0.00000000   -2048.17119228
O        1.29573876       2.03410231       0.00000000  T       0.10462495      -0.04627082       0.00000000   -2048.02901461
H       -0.23379214       2.38688236       0.00000000  T      -0.16837491       0.04099622       0.00000000     -16.46135594
H       -2.13820506       0.31629794       0.00000000  T       0.04714413      -0.06279811       0.00000000     -16.37043282
H        0.00548185      -1.01784781       0.00000000  T      -0.04434484       0.00249786       0.00000000     -16.44871650
H        2.18299271       0.25084588       0.00000000  T      -0.04944548      -0.16270704       0.00000000     -16.33332062
9
Lattice="10.0 0.0 0.0 0.0 10.0 0.0 0.0 0.0 10.0" Properties=species:S:1:pos:R:3:move_mask:L:1:forces:R:3:energies:R:1 energy=-7274.573544128711 stress="-5.35316438718328e-07 -1.8440914389972786e-07 0.0 -1.8440914389972786e-07 2.9547809463093247e-07 0.0 0.0 0.0 0.0" free_energy=-7274.573544128711 pbc="F F F"
C       -1.15459703       0.77508343       0.00000000  T      -0.03612763      -0.19418173       0.00000000   -1037.54459966
C        0.00000000       0.05900000       0.00000000  F       0.08548690       0.47980068       0.00000000   -1037.45277398
C        1.24357310       0.78863898       0.00000000  T      -0.08530952      -0.10788814       0.00000000   -1037.71956583
O       -1.22169470       2.08814672       0.00000000  T      -0.03081898      -0.08815449       0.00000000   -2048.18712990
O        1.31949052       2.01888578       0.00000000  T       0.03053253      -0.05326533       0.00000000   -2048.03041389
H       -0.28031328       2.40155321       0.00000000  T       0.07563726       0.13420630       0.00000000     -16.49488229
H       -2.12571578       0.29956802       0.00000000  T      -0.08156769      -0.07624019       0.00000000     -16.36820048
H       -0.00538829      -1.01693866       0.00000000  T      -0.03302252      -0.03042541       0.00000000     -16.44574349
H        2.17148795       0.20696077       0.00000000  T       0.07518966      -0.06385170       0.00000000     -16.33023460
