6
Lattice="31.748640810726098 0.0 0.0 0.0 31.51437331565608 0.0 0.0 0.0 34.58131724527378" Properties=species:S:1:pos:R:3:move_mask:L:1:forces:R:3:energies:R:1 energy=-26135.22659926157 stress="-3.86131686721143e-09 1.27674472280561e-19 8.977247935214971e-20 1.27674472280561e-19 -3.794083593629075e-09 -2.327888100784911e-11 8.977247935214971e-20 -2.327888100784911e-11 -4.3554446672047723e-08" free_energy=-26135.22659926157 pbc="F F F"
C       15.87432041      15.50478918      17.79727928  F      -0.00000000       0.00019465      -0.00944749   -1038.02110616
Cl      15.87432041      15.50478918      19.58131725  T       0.00000000      -0.00000085       0.02485607  -12524.49164754
H       15.87432041      16.51437332      17.41103144  T      -0.00000000       0.00798532       0.00730666     -16.17551983
H       16.74864081      15.00000000      17.41103315  T       0.00709482      -0.00408925       0.00723262     -16.17551960
H       15.00000000      15.00000000      17.41103315  T      -0.00709482      -0.00408925       0.00723262     -16.17551960
Cl      15.87432041      15.50478918      15.00000000  T       0.00000000      -0.00000061      -0.03718048  -12524.18728654
