6
Properties=species:S:1:pos:R:3:move_mask:L:1:forces:R:3:energies:R:1 energy=-26135.01684777883 stress="5.084817815475202e-09 1.905717430784868e-21 9.136425481486853e-22 1.905717430784868e-21 5.085279283693947e-09 -4.569503908947785e-13 9.136425481486853e-22 -4.569503908947785e-13 9.243069889219043e-07" free_energy=-26135.01684777883 pbc="F F F"
C        0.00000000       0.00000000      -1.12138900  F      -0.00000000       0.00000187      -0.67608331   -1037.41906076
Cl       0.00000000       0.00000000       0.65211548  T       0.00000000       0.00000017      -0.00322077  -12524.60656759
H        0.00000000       1.00938855      -1.51031229  T      -0.00000000      -0.00781359       0.00177267     -16.35164903
H        0.87415612      -0.50469423      -1.51031220  T      -0.00676556       0.00390577       0.00177161     -16.35164905
H       -0.87415612      -0.50469423      -1.51031220  T       0.00676556       0.00390577       0.00177161     -16.35164905
Cl       0.00000000       0.00000000      -4.30000000  F      -0.00000000       0.00000001       0.67398819  -12523.93627231
6
Properties=species:S:1:pos:R:3:move_mask:L:1:forces:R:3:energies:R:1 energy=-26135.08910588556 stress="6.075969184329503e-09 2.1456104741256254e-23 3.157711711148876e-23 2.1456104741256254e-23 6.076525772420828e-09 -5.291252141834205e-13 3.157711711148876e-23 -5.291252141834205e-13 8.934310972038855e-07" free_energy=-26135.08910588556 pbc="F F F"
C        0.00000000       0.00000000      -1.12138900  F      -0.00000000       0.00000212      -0.63949170   -1037.41575535
Cl       0.00000000       0.00000000       0.65530392  T      -0.00000000       0.00000017      -0.00719470  -12524.60966775
H        0.00000000       1.00953395      -1.50836651  T       0.00000000      -0.00876041       0.00574351     -16.34942148
H        0.87428204      -0.50476692      -1.50836642  T      -0.00758538       0.00437905       0.00574237     -16.34942150
H       -0.87428204      -0.50476692      -1.50836642  T       0.00758538       0.00437905       0.00574237     -16.34942150
Cl       0.00000000       0.00000000      -4.18888889  F       0.00000000       0.00000001       0.62945814  -12524.01541831
6
Properties=species:S:1:pos:R:3:move_mask:L:1:forces:R:3:energies:R:1 energy=-26135.15635764686 stress="-2.6750533889741267e-10 3.0699776781217587e-23 -3.822595521410209e-23 3.0699776781217587e-23 -2.698449136134253e-10 7.207571503264335e-13 -3.822595521410209e-23 7.207571503264335e-13 8.312502107148877e-07" free_energy=-26135.15635764686 pbc="F F F"
C        0.00000000       0.00000000      -1.12138900  F       0.00000000      -0.00000415      -0.56986408   -1037.41321588
Cl       0.00000000       0.00000000       0.65907071  T       0.00000000       0.00000006      -0.00278785  -12524.61274652
H        0.00000000       1.01048916      -1.50276248  T      -0.00000000       0.00036555      -0.00032976     -16.34601060
H        0.87510940      -0.50524464      -1.50276250  T       0.00031267      -0.00018074      -0.00032830     -16.34601059
H       -0.87510940      -0.50524464      -1.50276250  T      -0.00031267      -0.00018074      -0.00032830     -16.34601059
Cl       0.00000000       0.00000000      -4.07777778  F      -0.00000000       0.00000001       0.57363827  -12524.09236346
6
Properties=species:S:1:pos:R:3:move_mask:L:1:forces:R:3:energies:R:1 energy=-26135.213870920605 stress="-7.77818037055723e-10 5.959559230823456e-23 5.227888469947234e-23 5.959559230823456e-23 -7.771501927758784e-10 -5.599785290767164e-13 5.227888469947234e-23 -5.599785290767164e-13 6.655853911605134e-07" free_energy=-26135.213870920605 pbc="F F F"
C        0.00000000       0.00000000      -1.12138900  F      -0.00000000       0.00000200      -0.44463706   -1037.40902492
Cl       0.00000000       0.00000000       0.66428239  T       0.00000000       0.00000015      -0.00214598  -12524.61575284
H        0.00000000       1.01286711      -1.49346373  T       0.00000000       0.00097850       0.00012320     -16.34134451
H        0.87716864      -0.50643351      -1.49346364  T       0.00084875      -0.00049032       0.00012214     -16.34134453
H       -0.87716864      -0.50643351      -1.49346364  T      -0.00084875      -0.00049032       0.00012214     -16.34134453
Cl       0.00000000       0.00000000      -3.96666667  F      -0.00000000      -0.00000000       0.44641556  -12524.16505959
6
Properties=species:S:1:pos:R:3:move_mask:L:1:forces:R:3:energies:R:1 energy=-26135.251966423024 stress="1.1417264508215628e-08 -9.698251610412566e-25 4.7984793801296843e-23 -9.698251610412566e-25 1.1418136511479851e-08 3.913094950449368e-13 4.7984793801296843e-23 3.913094950449368e-13 3.716190314385656e-07" free_energy=-26135.251966423024 pbc="F F F"
C        0.00000000       0.00000000      -1.12138900  F       0.00000000      -0.00000148      -0.16949082   -1037.39904814
Cl       0.00000000       0.00000000       0.67367099  T      -0.00000000      -0.00000010      -0.01851695  -12524.61853570
H        0.00000000       1.01774674      -1.47664940  T      -0.00000000      -0.01337777      -0.01645485     -16.33583652
H        0.88139447      -0.50887348      -1.47664945  T      -0.01158507       0.00668969      -0.01645416     -16.33583647
H       -0.88139447      -0.50887348      -1.47664945  T       0.01158507       0.00668969      -0.01645416     -16.33583647
Cl       0.00000000       0.00000000      -3.85555556  F       0.00000000      -0.00000002       0.23737092  -12524.22687312
6
Properties=species:S:1:pos:R:3:move_mask:L:1:forces:R:3:energies:R:1 energy=-26135.261817086746 stress="2.0406516760115928e-09 -3.619006353639573e-23 4.034401577235067e-23 -3.619006353639573e-23 2.0414959429518653e-09 3.7129278223871985e-13 4.034401577235067e-23 3.7129278223871985e-13 -7.376508263284132e-08" free_energy=-26135.261817086746 pbc="F F F"
C        0.00000000       0.00000000      -1.12138900  F       0.00000000      -0.00000137      -0.04272299   -1037.38350507
Cl       0.00000000       0.00000000       0.67900590  T      -0.00000000      -0.00000008      -0.01271070  -12524.62081007
H        0.00000000       1.01958861      -1.46990759  T      -0.00000000      -0.00222697       0.04270150     -16.32621767
H        0.88298958      -0.50979440      -1.46990763  T      -0.00192823       0.00111421       0.04270210     -16.32621763
H       -0.88298958      -0.50979440      -1.46990763  T       0.00192823       0.00111421       0.04270210     -16.32621763
Cl       0.00000000       0.00000000      -3.74444444  F       0.00000000      -0.00000001      -0.07267200  -12524.27884902
6
Properties=species:S:1:pos:R:3:move_mask:L:1:forces:R:3:energies:R:1 energy=-26135.23742490893 stress="-1.983813542526709e-09 1.5521712174259527e-23 -7.793643524082132e-23 1.5521712174259527e-23 -1.9824250060890057e-09 -9.50462953634116e-13 -7.793643524082132e-23 -9.50462953634116e-13 -7.069993525075788e-07" free_energy=-26135.23742490893 pbc="F F F"
C        0.00000000       0.00000000      -1.12138900  F      -0.00000000       0.00000334       0.44671968   -1037.34448300
Cl       0.00000000       0.00000000       0.69199392  T       0.00000000       0.00000016       0.02815589  -12524.62145241
H        0.00000000       1.02758611      -1.43917535  T       0.00000000       0.00199773      -0.02204482     -16.31761723
H        0.88991565      -0.51379298      -1.43917525  T       0.00173230      -0.00100060      -0.02204626     -16.31761726
H       -0.88991565      -0.51379298      -1.43917525  T      -0.00173230      -0.00100060      -0.02204626     -16.31761726
Cl       0.00000000       0.00000000      -3.63333333  F      -0.00000000      -0.00000003      -0.40873822  -12524.31863775
6
Properties=species:S:1:pos:R:3:move_mask:L:1:forces:R:3:energies:R:1 energy=-26135.153156759716 stress="-3.868486362087477e-09 7.069170050947451e-21 4.726540106500754e-21 7.069170050947451e-21 -3.873453667707786e-09 1.2178624222211352e-12 4.726540106500754e-21 1.2178624222211352e-12 -2.025658438282412e-06" free_energy=-26135.153156759716 pbc="F F F"
C        0.00000000       0.00000000      -1.12138900  F      -0.00000000      -0.00000635       1.21684131   -1037.26612411
Cl       0.00000000       0.00000000       0.70956956  T      -0.00000000       0.00000008       0.00062619  -12524.61862958
H        0.00000000       1.03577432      -1.40885184  T      -0.00000000       0.00360469       0.00047939     -16.30841419
H        0.89700704      -0.51788725      -1.40885186  T       0.00311595      -0.00179923       0.00048109     -16.30841418
H       -0.89700704      -0.51788725      -1.40885186  T      -0.00311595      -0.00179923       0.00048109     -16.30841418
Cl       0.00000000       0.00000000      -3.52222222  F       0.00000000       0.00000005      -1.21890908  -12524.34316053
6
Properties=species:S:1:pos:R:3:move_mask:L:1:forces:R:3:energies:R:1 energy=-26134.94249776378 stress="-3.948334096047823e-09 9.23235210006601e-23 -3.233748546432928e-25 9.23235210006601e-23 -3.949505694497521e-09 1.2907676300695044e-14 -3.233748546432928e-25 1.2907676300695044e-14 -4.385148314682159e-06" free_energy=-26134.94249776378 pbc="F F F"
C        0.00000000       0.00000000      -1.12138900  F      -0.00000000      -0.00000062       2.59360681   -1037.12130646
Cl       0.00000000       0.00000000       0.73924189  T       0.00000000       0.00000004      -0.00832662  -12524.59689118
H        0.00000000       1.04870442      -1.35406653  T      -0.00000000       0.00336735      -0.00374639     -16.30465277
H        0.90820471      -0.52435220      -1.35406651  T       0.00291517      -0.00168338      -0.00374637     -16.30465277
H       -0.90820471      -0.52435220      -1.35406651  T      -0.00291517      -0.00168338      -0.00374637     -16.30465277
Cl       0.00000000       0.00000000      -3.41111111  F       0.00000000      -0.00000002      -2.57404106  -12524.31034181
6
Properties=species:S:1:pos:R:3:move_mask:L:1:forces:R:3:energies:R:1 energy=-26134.62608986822 stress="-2.5260229512448636e-10 5.399533276533642e-23 1.36212895223354e-22 5.399533276533642e-23 -2.6103463993525147e-10 1.076606638508508e-12 1.36212895223354e-22 1.076606638508508e-12 -4.738946092841832e-06" free_energy=-26134.62608986822 pbc="F F F"
C        0.00000000       0.00000000      -1.12138900  F      -0.00000000      -0.00000935       2.73211720   -1036.93255798
Cl       0.00000000       0.00000000       0.78993646  T      -0.00000000       0.00000011      -0.03692094  -12524.53049226
H        0.00000000       1.06358849      -1.27708846  T       0.00000000       0.00020633       0.01416384     -16.30908914
H        0.92109489      -0.53179438      -1.27708848  T       0.00017034      -0.00009857       0.01416509     -16.30908911
H       -0.92109489      -0.53179438      -1.27708848  T      -0.00017034      -0.00009857       0.01416509     -16.30908911
Cl       0.00000000       0.00000000      -3.30000000  F       0.00000000       0.00000005      -2.73769028  -12524.23577227
